m1CONTCARsupper                         
   1.00000000000000     
    32.4035987853999998    0.0000000000000000    0.0000000000000000
    -0.0003437759000000   28.0620994547000002    0.0000000000000000
     0.0000000000000000    0.0000000000000000   18.4095001220999990
   S    Cu   P    In
   168    28    56    28
Direct
  0.0192086268643828  0.9291261587650430  0.2093269398322939
  0.0471017295774484  0.7211790495624244  0.1768419747293861
  0.1896507576272514  0.8623003688534883  0.1712654550526574
  0.0858353177607245  0.4975620007738545  0.1911474077299044
  0.2277785227775666  0.6533344699423442  0.1626876665707333
  0.3734487504801868  0.7947664006310395  0.1630357267260103
  0.1143462976123283  0.2885882209997667  0.1802073526081744
  0.2642518655460239  0.4284933773237569  0.1847422987479128
  0.3992751529245445  0.5734693094498436  0.1541587839461730
  0.1485299561604234  0.0844198820080778  0.1751382913732868
  0.2924415904708774  0.2141196506089449  0.2009262295939250
  0.4366583113867242  0.3594423891724806  0.1974420267837114
  0.3396918422494810  0.0076622582371459  0.1796240093659865
  0.4797126411696668  0.1455031246964588  0.1881628541941828
  0.0872823888691057  0.8346332972647982  0.1746274091620958
  0.2305287860856882  0.9819317259080516  0.1674677701720936
  0.1187617575125604  0.6088857785437206  0.1748232167511417
  0.2609476440309608  0.7632056803691576  0.1620469558441368
  0.4096670984375144  0.9081822678721536  0.1774225260390860
  0.0162954292461360  0.2533031423398203  0.1920860119624808
  0.1519324025943542  0.4029696537947646  0.1905343604081082
  0.2939956259971885  0.5412162599743118  0.1852958566568690
  0.4352287776502338  0.6865539085219513  0.1508861162961523
  0.0464259444846960  0.0477254752005900  0.1954770028370026
  0.1929860210318309  0.1904207185994631  0.1865972907134882
  0.3334731712416527  0.3279690897838892  0.1931758612218121
  0.4699482695105459  0.4714967844681904  0.2011113942362598
  0.3713706274213182  0.1161386857371489  0.1833667357917457
  0.1286114405004762  0.9608446313870862  0.1657154573836468
  0.0156099626357066  0.5913543861481632  0.1842915662103743
  0.1607038869541265  0.7415991605669200  0.1709632280676188
  0.3022142911485910  0.8859919835830746  0.1783559536089768
  0.0499975991231126  0.3836238459816265  0.1794984480556592
  0.1919197933125709  0.5169122332904726  0.1820464296139319
  0.3315020205960710  0.6654016716067696  0.1623188447310108
  0.4811340823943577  0.8025391936798674  0.1826055699835250
  0.0873352781602818  0.1741930401186540  0.1800346432350624
  0.2335880665720224  0.3150080878703412  0.1898554880323934
  0.3628119171776957  0.4424479203368219  0.2030033921606812
  0.2710047158246945  0.0977496570575635  0.1775399230593780
  0.4110938925136001  0.2430783064036716  0.1888236409237226
  0.4427121105401866  0.0163908358937693  0.1794602444776934
  0.1294184727102930  0.8917554424618981  0.3396507091520693
  0.0292226478678473  0.5266749690367382  0.3751132291136385
  0.1739194495679241  0.6651245300279178  0.3481727707207889
  0.3095729312171921  0.8115794689845602  0.3336592099529364
  0.4526106818944751  0.9441524226762226  0.3820199861462836
  0.0575446128532461  0.3144371148767823  0.3677751724242793
  0.2076260414391430  0.4527487462160908  0.3789684050538729
  0.3436717902770566  0.5988789603137175  0.3399239002609504
  0.4897219760575365  0.7311101411051851  0.3682542625035280
  0.0978282409965184  0.1008369127965500  0.3753839665161485
  0.2432087556955824  0.2435288806482515  0.3832985887803486
  0.3855679666116474  0.3838669394332472  0.3886194439210694
  0.2694942750645757  0.0334094440218244  0.3630440509245760
  0.4176889759198179  0.1593020880300999  0.3712751082053497
  0.0324901384048466  0.8519954922940363  0.3675310145252562
  0.1657813809906875  1.0005751395105751  0.3562071790695310
  0.0563107672171200  0.6417521110584422  0.3596402928607464
  0.2048782988929428  0.7823745864193372  0.3619013898755237
  0.3411891746675552  0.9241245545254679  0.3649252591588716
  0.0891202424675874  0.4279676552975545  0.3683439476429834
  0.2376627996219360  0.5688452555453926  0.3583871422156631
  0.3799418248185329  0.7092911367118793  0.3469943492639065
  0.1369008557916081  0.2155725007221055  0.3562585254523441
  0.2716807537425714  0.3589115004098937  0.3762741178555182
  0.4141846385969645  0.4955604211278167  0.3848489672645062
  0.3115397332094293  0.1385192271310516  0.3771532153729937
  0.4426933028143228  0.2763838702175404  0.3883058347165600
  0.4859441585351265  0.0630982072561404  0.3667161909541603
  0.0618091803022479  0.9874283767216943  0.3795083747815907
  0.0958695812186900  0.7658347232799291  0.3569173493508508
  0.2320651762946308  0.9138283356447855  0.3566519034804390
  0.1286333741284251  0.5462520357131344  0.3621621942332175
  0.2765267495072219  0.6927024701025259  0.3431503951664240
  0.4092920022013469  0.8312817598880063  0.3593550904123519
  0.0216876437843266  0.1973327420644718  0.3879896653362713
  0.1594630961846481  0.3406556058647582  0.3770240540448628
  0.3099715730142225  0.4845991876180707  0.3719824017339968
  0.4449190872415160  0.6135547522595461  0.3422399057953304
  0.1979753100127561  0.1190221337034415  0.3709492103450923
  0.3449190902986117  0.2609435209503781  0.3774283353948308
  0.4854567317296949  0.4029944836845530  0.3810921975968222
  0.3771927661584579  0.0522933181159019  0.3750279345213788
  0.5181410180871461  0.9270079110021301  0.2038016843185045
  0.5463487776529246  0.7165916106504728  0.1752455323197320
  0.6890093430016513  0.8578724633861023  0.2001893757494217
  0.5823028554351085  0.5000220015352582  0.1931665930606198
  0.7226734146756841  0.6445382391714433  0.1813569872312510
  0.8693486098365740  0.7903527859063887  0.2041908993850545
  0.6239975082082333  0.2919478107485055  0.2068417503216371
  0.7601944845089114  0.4291806714962474  0.1914158000714196
  0.9059876211082204  0.5826808878662690  0.1804393310232155
  0.6505426075902233  0.0762364947563592  0.2055749214476613
  0.7944956171026930  0.2166717652454338  0.1990510259992784
  0.9372442058707053  0.3534244545466763  0.1818008099500572
  0.8318033059061369 -0.0065907518491105  0.2279769501478378
  0.9736487188039479  0.1413525953214304  0.1913683371668208
  0.5811386027784065  0.8316454133384573  0.1911409173348916
  0.7296268899320359  0.9665823952827655  0.1986646927092560
  0.6213345019064836  0.6106399142454665  0.1835686850070637
  0.7591104993676802  0.7598702670172823  0.1883840793174255
  0.9036510948895168  0.9126267324057327  0.2214795137173660
  0.5048447507655470  0.2674920749063445  0.2004861276509173
  0.6453538923247796  0.4098274712438685  0.2117243474963283
  0.7981197889542659  0.5422049776822570  0.1899588395548406
  0.9368950876880151  0.6932983968692614  0.1727831546076211
  0.5410631902163215  0.0459987104219130  0.2032914156521085
  0.6816033543082604  0.1922737049199371  0.2083454280432317
  0.8321502052434294  0.3303713908346574  0.1819937133657045
  0.9728484030743237  0.4723905826933875  0.1782897741136597
  0.8626571599558605  0.1078797951879192  0.1991429468670917
  0.6239949988495256  0.9450556117078651  0.1791352640752728
  0.5147205854079832  0.5963933583789048  0.1864915336690691
  0.6571504877210684  0.7435627173923496  0.1889313546800435
  0.8044814460203388  0.8908094791262120  0.1991234284706695
  0.5499545696521473  0.3786088702417881  0.2100881317784692
  0.6957544171584126  0.5253740843302966  0.1930574218683822
  0.8333285766262506  0.6752476322737758  0.1902183867432850
  0.9827212952672451  0.8232078876722605  0.1737116498450784
  0.5817292857677415  0.1620141424419898  0.1973125254612170
  0.7276420566106303  0.3035366506683729  0.1973655490246826
  0.8734613541008205  0.4477711085478143  0.1809207908832265
  0.7632190921053033  0.0919064483938086  0.1981133661064259
  0.9101957217843925  0.2403949869271481  0.1852516866986490
  0.9441479401027131  0.0221774601210086  0.1911146834046725
  0.6342763583950338  0.8782031264931695  0.3862568904648612
  0.5230984987959152  0.5243858185669439  0.3766446668431433
  0.6645671340811820  0.6720781718445104  0.3616135228126764
  0.8174077543615001  0.8080363622506569  0.3944782281649146
  0.9569635605469982  0.9529794741831259  0.3838647941280295
  0.5627738342297202  0.3067416894140611  0.3794627795759200
  0.7056336968046766  0.4477803825384360  0.3765489327409683
  0.8452025028970448  0.5959247814498256  0.3622747705831271
  0.9869385947213687  0.7464329257002716  0.3491441151300572
  0.5982041591674064  0.0943165674052756  0.3918131784349412
  0.7342028441658451  0.2404767309262364  0.3812332134427524
  0.8797752640732944  0.3766451237802486  0.3719460623325116
  0.7748951840720029  0.0301109843809248  0.4065310518632197
  0.9217215166441344  0.1735497479514796  0.3719626673876354
  0.5221707167426284  0.8498036696957850  0.3746159784620412
  0.6541705040307821  0.9924382995366331  0.3834403587081767
  0.5626545973176391  0.6390698274461012  0.3618548122131244
  0.7091666523477694  0.7809277975141092  0.3762792865651112
  0.8468205778880138  0.9219938549188560  0.3983369527885840
  0.5886435943005828  0.4282790518664398  0.3900564299289231
  0.7402811469691867  0.5633854263580697  0.3821846425838715
  0.8878461003186812  0.7108412104746674  0.3627717851674004
  0.6216400194053613  0.2154390575904802  0.3866717676089205
  0.7694096490776300  0.3475256169328304  0.3798654504590837
  0.9148673126313626  0.4870981838636553  0.3769483318220573
  0.8097830302286427  0.1417688693217329  0.3765772822465565
  0.9615181481796509  0.2870598491417264  0.3529244218838397
  0.9831251310142168  0.0732739899005957  0.3826033922183240
  0.5505030469455501  0.9796874099029905  0.3853657716441392
  0.5924067011168154  0.7575998767970726  0.3715688277868757
  0.7269322608794460  0.9060671651535085  0.3931426235605453
  0.6272453815156652  0.5514434710093863  0.3893575300547228
  0.7674781185921734  0.6719764975253045  0.3508632571602201
  0.9185606617856659  0.8314180937750093  0.3804933424438445
  0.5216161968212274  0.1958318200710822  0.3923204812549707
  0.6610420999079430  0.3404658151911504  0.3903905330575660
  0.8115243628160383  0.4780557518139469  0.3660821845644409
  0.9498545496583999  0.6196543851328757  0.3566817875245820
  0.6980602145643897  0.1221903193999202  0.3990308425317416
  0.8446376981849533  0.2546283429340853  0.3748230765931195
  0.9811398351446032  0.3950072955711104  0.3594531276808337
  0.8826081592818317  0.0560026051325017  0.3898978176759670
  0.0848993062127314  0.9150585681400780  0.2309177691826837
  0.1026994664832829  0.6883318517463108  0.3084301171077602
  0.2527664541721658  0.8395711262266505  0.1993004038554607
  0.3918313029583490  0.9779239163723924  0.3614309696699448
 -0.0013354352054034  0.3279523493762084  0.2017455107400574
  0.1440107966399843  0.4720916515082119  0.3226233737405833
  0.2861280444131363  0.6168034912609077  0.2496267035128482
  0.4351884154662473  0.7551166297633199  0.3067455561857044
  0.0350195807006445  0.1229489718380217  0.3615606785488866
  0.1804821560699880  0.2656373238635189  0.2149114382538056
  0.3215411698269713  0.4122308789913379  0.3531612123802154
  0.4593379171600709  0.5515261831511002  0.1933657571870199
  0.2057440657943167  0.0483726539852649  0.2013563411110856
  0.3576799620782114  0.1926150105970067  0.2132954306058220
  0.5725576218015508  0.9050380029019583  0.3560713394564537
  0.6102395832332657  0.6888967589221995  0.2025338535755059
  0.7530161319871088  0.8372239898689100  0.2136469571091875
  0.8899778864983479  0.9792706074245788  0.3655714596889992
  0.4964378740613929  0.3262087775061491  0.3647545046607399
  0.6404899465388447  0.4780572050683695  0.3798842566502990
  0.7840363305468956  0.6251187779742097  0.2088780872252113
  0.9340522669099378  0.7727017202403227  0.1918010970520437
  0.5318187674277487  0.1216133174040596  0.3566188470986780
  0.6746975919526377  0.2694019166484427  0.3485818622668834
  0.8157863813654246  0.4017571368100838  0.3350972787790092
  0.9623506142681187  0.5422741947666950  0.3654804113484547
  0.7159023749759859  0.0445021786701349  0.2137847057035408
  0.8599988140502404  0.1918001211026656  0.2221232125894187
  0.0033105710835848  0.0002843678068126  0.2255859539112085
  0.0384579859251261  0.7936622360418358  0.2031662101865267
  0.1822307735103830  0.9361998782707639  0.1924831397738310
  0.0693911665030044  0.5661437319016320  0.2134788688430934
  0.2182346514358617  0.7209450225379078  0.2026519760297911
  0.3615483291617544  0.8615385329609492  0.2011806921420466
  0.1085564376911604  0.3577554423677283  0.2147786663415091
  0.2492509431290627  0.4958407718306498  0.2100126968568934
  0.3890552777695074  0.6445170311278886  0.1871690347928865
  0.1397973552924560  0.1495249055638356  0.2142304594779921
  0.2865681395155568  0.2849835760360265  0.2290388013144512
  0.4215801365813816  0.4259281700428720  0.2305214794315339
  0.3230100418477215  0.0706241186064915  0.2210449902218601
  0.4654737382896728  0.2117756499543685  0.2250246881776144
  0.0021131570067592  0.0026471020036855  0.3482347043951354
  0.0371463844850103  0.7920780836013763  0.3225729628975224
  0.1771288987946039  0.9353323197848179  0.3208653720523798
  0.0728537065137106  0.5715326323923250  0.3311600020324850
  0.2189600659502263  0.7151668163229510  0.3221368160447181
  0.3549667247692855  0.8545392219290571  0.3185626905311036
  0.1045954500576537  0.3580188869336021  0.3373761437849175
  0.2500870836259865  0.4989364153745004  0.3355597007928579
  0.3913880026166895  0.6425946368589306  0.3118092433489907
  0.1445244173412751  0.1488558110448282  0.3337975806928469
  0.2905359067302429  0.2846505384777834  0.3481735488601252
  0.4278410361845454  0.4277901937618978  0.3571297614081945
  0.3196395376542669  0.0699618411433019  0.3393234333257803
  0.4598983780545229  0.2088903348856976  0.3537465342623815
  0.4980126539106482 -0.0047485216657167  0.2201421351237450
  0.5371469277846824  0.7875538000400726  0.2110900785354255
  0.6761679847215861  0.9227253077737977  0.2256869407395139
  0.5727722704213170  0.5666911090162521  0.2196334506699725
  0.7126306001260592  0.7146364014010945  0.2181337509306476
  0.8592953199867367  0.8592941520957271  0.2407617485661377
  0.6061739427722502  0.3572222257615939  0.2417479386909271
  0.7488504953212438  0.4968332016900203  0.2196476013633476
  0.8921277093821366  0.6502443507444018  0.2166214849117638
  0.6381710110588470  0.1442824130760635  0.2373792952717421
  0.7869310223888840  0.2902246995103485  0.2157542385250374
  0.9295487424745564  0.4255174598905404  0.2145071336889672
  0.8194784583937293  0.0645607737361717  0.2375558069975985
  0.9651088584999099  0.2100386383926401  0.2228644222077769
  0.4944541865709586 -0.0065422575278896  0.3445401263904532
  0.5394874916204583  0.7832204368605595  0.3352144002165943
  0.6727980592661805  0.9298554052056019  0.3526073939636095
  0.5693812437693583  0.5669555963694861  0.3411867826384705
  0.7148831806509777  0.7116650367018607  0.3380829352468476
  0.8609688083611113  0.8534084629969149  0.3618827817977409
  0.6040538989947318  0.3617926285262616  0.3598001383605455
  0.7508498870650679  0.4967910275973496  0.3448771766905749
  0.8926799657275988  0.6404378250169857  0.3383740787844590
  0.6422591661495211  0.1439869467532567  0.3611714427333880
  0.7876600826563419  0.2815852839722300  0.3407653559081836
  0.9258056133142273  0.4214154769127741  0.3328707281356028
  0.8193041112331413  0.0718167603272016  0.3646785470080610
  0.9658140220161099  0.2164641501215196  0.3396465972771133
  0.0005229268001652  0.6688567520531521  0.2581781059257104
  0.1500080095797173  0.8126927535721492  0.2664886232477050
  0.2871840196125584  0.9572513041512049  0.2649307562007333
  0.0289765267450976  0.4521223743204674  0.2780711665170990
  0.1860553738162972  0.5958935062680187  0.2514509343606798
  0.3282584904979123  0.7414633862942077  0.2455111940929424
  0.4649047424701227  0.8754245899531691  0.2678986916530408
  0.0729921158620171  0.2418119603517693  0.2848907204435936
  0.2142471566587925  0.3853617059056256  0.2801511880975899
  0.3633056414589765  0.5219856717669620  0.2715572524535160
  0.1068179663034128  0.0274305118649840  0.2718050765318662
  0.2473940228700917  0.1689801856017412  0.2946647941062420
  0.3894240207470335  0.3066767748117638  0.2843404685684393
  0.4285134664686871  0.0884751138416753  0.2710929514053405
  0.5008033096928814  0.6610652167613049  0.2777722284581260
  0.6441403813915018  0.8089149677788733  0.2922050444198634
  0.7782586946378717  0.9553396988982479  0.3216234827072170
  0.5341830230749623  0.4543940214376072  0.2910019954450028
  0.6835615696106970  0.5945133930507907  0.2840575667650144
  0.8252508884629313  0.7357964568822042  0.2948646091499363
  0.9654526077501251  0.8826381369503961  0.2911784925483195
  0.5707641088336654  0.2375685995899113  0.2779085904920057
  0.7102660393247633  0.3803324410034639  0.2677480065638130
  0.8638192420213050  0.5227755149623983  0.2721677825578790
  0.6010441467976249  0.0112529956719328  0.2792449958887938
  0.7444420918690767  0.1618461020457310  0.2945184472136251
  0.8910967637492873  0.3079610794075494  0.2781793052836824
  0.9277290024887476  0.0878545678259887  0.2873013810444768
 
 -0.72802054E-02  0.50744514E-02  0.22459580E-03
 -0.23095933E-02  0.82611103E-03  0.26022388E-02
  0.46593664E-02 -0.10762880E-02 -0.96855638E-03
 -0.58457244E-02  0.40811088E-03  0.26738891E-02
  0.25289660E-02  0.43803462E-02 -0.59563165E-02
 -0.10806164E-02  0.33002966E-02 -0.15021606E-02
 -0.65302462E-03  0.44780211E-02 -0.45563996E-02
 -0.16915488E-03  0.11522098E-02  0.25642374E-03
 -0.47325889E-02 -0.63600600E-02  0.97434124E-03
  0.13624891E-02  0.28859139E-02 -0.28753779E-02
  0.28042408E-02 -0.61588052E-02  0.58878407E-03
 -0.74542856E-03  0.23232722E-02 -0.72288449E-02
 -0.25231592E-03 -0.97607835E-03  0.28287735E-02
  0.20564427E-02  0.19588281E-02  0.83323962E-03
 -0.58456454E-02  0.97473651E-03  0.16985890E-02
  0.23392431E-02 -0.13592176E-02  0.34996935E-02
  0.23510856E-03 -0.60227255E-03  0.31730053E-02
  0.33818386E-02 -0.60104492E-03 -0.34618755E-02
 -0.45055283E-02 -0.14255580E-04  0.25382116E-02
 -0.18747393E-02  0.12210871E-02 -0.48060366E-03
  0.15184014E-02 -0.48649405E-02  0.39985656E-02
  0.11673006E-02 -0.83434293E-02  0.15882696E-02
 -0.52281716E-02  0.25286257E-03  0.27315728E-02
  0.20323642E-02 -0.31750509E-02 -0.55336313E-02
 -0.83154607E-03  0.16771150E-02  0.22094235E-02
 -0.62742390E-03 -0.35456071E-02 -0.95920389E-03
  0.43691814E-02  0.23362462E-02 -0.22482453E-02
  0.55153569E-02  0.16766218E-03  0.55818422E-03
 -0.61972622E-02  0.47868308E-02  0.10665294E-02
  0.17858860E-02 -0.25104865E-02 -0.48824858E-02
  0.22634427E-02  0.17594732E-02  0.26210318E-02
 -0.55751691E-02 -0.39011996E-02 -0.13645426E-02
  0.35946676E-02 -0.24483543E-02 -0.19199077E-02
 -0.31148411E-02 -0.21834903E-02 -0.11350971E-02
 -0.31664182E-02  0.12847685E-03 -0.18473010E-02
 -0.13569329E-02  0.55417895E-02  0.50816890E-03
 -0.22637650E-02 -0.15759836E-02  0.17399574E-02
  0.37342629E-02 -0.24439764E-02  0.37886990E-02
 -0.67947095E-03 -0.40065431E-02 -0.25370716E-02
  0.35922003E-02  0.24175408E-02 -0.23917806E-02
  0.21916981E-02  0.92252765E-03  0.60758203E-02
 -0.15026766E-02  0.20121441E-02 -0.63802797E-02
  0.28995784E-02  0.20297106E-03  0.41809249E-02
  0.22291060E-02 -0.36674851E-03 -0.22137646E-03
 -0.57622167E-02  0.48490005E-03 -0.15374113E-02
 -0.18388476E-02 -0.12043545E-02 -0.76288573E-02
  0.35919586E-02 -0.76253139E-02  0.28699824E-02
 -0.42559007E-02 -0.35111098E-02 -0.48812491E-02
  0.75299402E-03 -0.54325586E-03 -0.27157462E-02
  0.76775151E-03  0.77779330E-03  0.30748290E-02
 -0.36470656E-02 -0.33262527E-02  0.21592421E-03
 -0.19347022E-02  0.18259527E-03 -0.26363917E-02
 -0.36119251E-02 -0.28903213E-03 -0.53572960E-03
  0.63239861E-03 -0.53588336E-05 -0.14043023E-02
  0.30693929E-02 -0.15021562E-02 -0.16739304E-02
  0.21535756E-02 -0.25141657E-02  0.35179924E-02
 -0.23495440E-02  0.95357646E-03  0.12156133E-02
 -0.38202251E-02  0.31932646E-02 -0.18158309E-02
 -0.38459255E-02 -0.41084232E-03 -0.37880812E-02
  0.83619487E-02 -0.18361994E-02 -0.84881565E-03
 -0.13231022E-02 -0.11312567E-02  0.40034363E-02
  0.48221360E-02 -0.23087309E-02  0.32985525E-03
 -0.35103099E-02 -0.14808576E-03 -0.77897517E-02
 -0.51113829E-02 -0.72686058E-03 -0.16618540E-02
  0.16982677E-02  0.28486521E-02 -0.22646283E-02
 -0.60668149E-03  0.82298150E-03  0.25251057E-02
 -0.45803094E-02  0.59546073E-03 -0.38716645E-02
 -0.77700145E-03 -0.51726052E-03 -0.74491618E-02
 -0.99246186E-03  0.47979348E-02 -0.89664400E-02
  0.44341163E-02  0.14066140E-02 -0.66536542E-03
 -0.32887423E-02  0.34924844E-02  0.15711030E-02
 -0.49982151E-02  0.18569674E-02  0.20419166E-02
 -0.39795989E-03 -0.67638735E-04 -0.16145699E-02
  0.45727797E-02 -0.15568663E-02  0.25874419E-02
 -0.58754566E-03 -0.54106136E-02  0.46278722E-02
  0.31587817E-02  0.51821482E-03 -0.13947573E-02
  0.28560876E-02  0.30536790E-02 -0.71581858E-02
 -0.21955971E-02  0.13793175E-02  0.42686995E-02
 -0.33994108E-02  0.52337541E-04  0.26551687E-02
 -0.35123083E-02  0.16416369E-02 -0.27239120E-02
  0.34561521E-02 -0.41364397E-03 -0.21359707E-02
  0.19047397E-02  0.47170777E-03  0.63552007E-02
 -0.48451732E-02 -0.34613834E-02  0.23788772E-03
 -0.92194217E-03 -0.37271474E-02  0.24929192E-02
  0.46799173E-02  0.46486613E-02  0.18089932E-02
  0.29789000E-02  0.12254923E-02 -0.16429536E-02
 -0.48700735E-02 -0.10525244E-02  0.70977874E-02
  0.88236945E-03  0.46953736E-02  0.21250182E-02
  0.74623213E-03 -0.48535488E-02 -0.42767967E-03
  0.51317482E-02 -0.44050158E-02  0.19691131E-02
 -0.60818792E-02  0.20098036E-04 -0.22008148E-02
  0.15568741E-02 -0.17908218E-02  0.14440841E-02
  0.66613815E-03 -0.45217685E-02 -0.44448211E-02
 -0.69350802E-02  0.56324766E-02 -0.22292387E-02
 -0.65054863E-02  0.57878641E-02 -0.41725379E-02
 -0.22132875E-02 -0.75679009E-03 -0.34499156E-02
 -0.15868499E-02 -0.35411297E-02 -0.20940215E-02
  0.11106359E-02 -0.12649823E-02 -0.11001798E-02
  0.12486661E-02 -0.17579840E-03  0.46460959E-02
  0.16940174E-02  0.99340125E-03 -0.14148936E-02
 -0.52333419E-02 -0.61231431E-02 -0.32408714E-02
 -0.25807256E-02 -0.81716780E-03  0.41661941E-02
 -0.15398086E-02  0.44678888E-02  0.18291092E-02
 -0.83307760E-03  0.76675131E-03 -0.15594894E-02
  0.47118532E-02 -0.40899444E-02  0.56299839E-02
 -0.55093421E-02 -0.53154714E-02  0.83575332E-02
  0.49337087E-03 -0.78557175E-03 -0.10169290E-02
  0.75841715E-02  0.52378481E-02  0.20000887E-02
  0.43847104E-03  0.47092419E-03  0.14988712E-02
  0.30684817E-02 -0.48243086E-02 -0.58862950E-02
  0.86078619E-03 -0.11191386E-02  0.68972032E-02
 -0.11513345E-02 -0.14700721E-02 -0.14872941E-02
  0.17175471E-02  0.49020244E-02 -0.70670247E-03
  0.22155789E-03 -0.76415096E-03  0.27846975E-02
  0.76144675E-02  0.62790277E-02  0.42113490E-02
 -0.58891396E-02 -0.43969741E-04  0.11996436E-02
  0.44829134E-02 -0.37039729E-02 -0.14056350E-03
 -0.17927865E-02 -0.32496876E-02  0.35945869E-03
  0.81026197E-02 -0.32119149E-02 -0.23065904E-02
  0.26393361E-04 -0.29717238E-02  0.47284531E-02
  0.16418721E-02  0.21064764E-02  0.37758281E-03
  0.15144282E-02 -0.14687418E-02 -0.47729743E-02
  0.18345828E-03 -0.44216287E-02  0.54700857E-02
 -0.13144209E-02 -0.55263443E-03  0.43479384E-02
  0.40859574E-04 -0.16658985E-02 -0.31646203E-03
 -0.12404754E-02 -0.21098589E-02  0.38425936E-02
  0.97111545E-03 -0.27294536E-04 -0.53219548E-02
  0.50635701E-02  0.31079355E-02  0.27175144E-02
  0.31213777E-02  0.65759170E-03 -0.40662942E-02
  0.18251903E-02  0.16727621E-02  0.21261958E-02
 -0.77815736E-03  0.13631604E-02  0.20520606E-03
 -0.21875425E-03 -0.20189518E-02 -0.35091140E-02
  0.79473340E-02 -0.31163941E-02 -0.72821082E-03
 -0.16847728E-02 -0.58469989E-03 -0.24817782E-02
  0.26491705E-02  0.40963549E-02 -0.31851538E-02
  0.12834499E-02  0.39694364E-03  0.70389974E-02
  0.17573692E-02  0.20352366E-02  0.58097760E-02
  0.27885613E-02 -0.18951827E-02 -0.24823702E-03
 -0.50218979E-02 -0.34636856E-02  0.49097936E-02
 -0.21750489E-02 -0.85319365E-03  0.19258423E-02
 -0.44002128E-02 -0.26005744E-02  0.80611132E-03
  0.20621358E-02  0.63173511E-02  0.28978254E-03
 -0.34939635E-02  0.15219565E-02  0.53584622E-02
  0.49396159E-02 -0.33231440E-02 -0.10603359E-01
 -0.11821743E-02 -0.35357254E-02  0.58103699E-02
  0.21266995E-02  0.27235379E-02  0.13851279E-02
  0.41475701E-02 -0.11391165E-03  0.29574985E-02
  0.24855861E-02  0.81830861E-03  0.17001227E-02
  0.12232392E-02 -0.30689309E-03  0.67914983E-02
  0.23434525E-02  0.24501286E-02 -0.30318891E-02
  0.71369665E-03 -0.43675902E-02 -0.98317387E-03
 -0.28441676E-02 -0.86267482E-03  0.24577690E-02
 -0.68759720E-03  0.81609373E-03  0.29074339E-02
 -0.15927882E-02 -0.26177044E-02  0.34945434E-02
  0.57489430E-02 -0.25637510E-02  0.28560560E-02
 -0.36369636E-02  0.34251891E-02 -0.31912928E-02
 -0.24727153E-02  0.21137415E-02 -0.91456356E-03
  0.48700736E-06 -0.14800911E-02  0.19975377E-02
  0.21307428E-02  0.40956826E-03  0.49942592E-03
 -0.19706089E-02  0.81296721E-03 -0.35396397E-03
  0.20223955E-02  0.44223607E-03 -0.97264485E-02
 -0.94437909E-04 -0.59304639E-02 -0.11551381E-02
 -0.11454882E-02 -0.57474887E-03  0.39051198E-02
  0.92985405E-03 -0.62711979E-02  0.26643432E-03
 -0.47117522E-02 -0.17016750E-02 -0.34225009E-02
  0.40803108E-02  0.70357478E-03  0.14152851E-02
  0.25435334E-03 -0.52677552E-03 -0.34354879E-02
  0.90809431E-04  0.10566166E-03 -0.27594444E-02
 -0.11570605E-02 -0.12103116E-02 -0.57438199E-03
  0.35130540E-02  0.38488128E-02  0.14794358E-02
  0.59983822E-03  0.37219800E-02 -0.13324745E-02
  0.14807795E-02  0.11932044E-02 -0.26254345E-02
 -0.16398225E-02  0.11034271E-02 -0.24337272E-02
 -0.34379002E-02 -0.11014199E-02  0.16076198E-02
  0.47227033E-03  0.34015381E-02 -0.14827104E-03
  0.19065973E-02 -0.36344414E-02  0.73495444E-03
  0.16340395E-02 -0.44270361E-02 -0.20077703E-02
  0.79827179E-03  0.39885156E-02 -0.19211527E-02
  0.76375036E-03 -0.16278285E-03  0.64877981E-04
  0.44500679E-04 -0.12016793E-02  0.22706618E-03
 -0.59034995E-03 -0.59794272E-03 -0.16554844E-02
  0.12938088E-04  0.58780465E-02  0.13384045E-02
 -0.26846303E-02 -0.45583785E-02 -0.14388337E-03
  0.49574751E-04  0.40499486E-02  0.12353128E-03
 -0.14994444E-02  0.68873652E-03  0.32913501E-02
  0.39673149E-02  0.13583607E-02  0.59671754E-02
  0.35616429E-03 -0.55823286E-04 -0.32139008E-02
  0.49549929E-03 -0.22625115E-02  0.66551198E-03
 -0.26843952E-02  0.23481398E-03 -0.24839233E-02
 -0.45775825E-04 -0.16888046E-03 -0.14898091E-02
  0.32355472E-02 -0.26089969E-02  0.55703062E-03
  0.12642229E-02 -0.32485467E-02 -0.17090105E-02
 -0.63646626E-03  0.27730911E-02  0.24236188E-02
  0.20026056E-02  0.25897913E-02  0.43500183E-03
  0.30094881E-02  0.28650553E-02 -0.37548553E-03
 -0.36356947E-02 -0.34907507E-03  0.30207883E-02
 -0.77502374E-03  0.47138242E-02  0.20260937E-02
  0.35929027E-02  0.25508150E-02 -0.82524317E-02
 -0.17957299E-02  0.91466973E-03  0.37109423E-03
 -0.12933393E-02 -0.65767065E-03 -0.47059263E-02
 -0.28636140E-02  0.29429690E-02  0.40090940E-02
  0.45907635E-02 -0.15285084E-02 -0.60987148E-03
 -0.26051100E-03  0.28987908E-03 -0.95988604E-03
 -0.33879408E-02  0.28209471E-02 -0.69712757E-03
  0.14993361E-02  0.40165880E-02  0.26817343E-02
  0.23272796E-03  0.14339054E-02 -0.39500960E-02
 -0.24404001E-02  0.23299888E-02 -0.23504479E-02
 -0.20227547E-02 -0.56496942E-02  0.91446463E-04
 -0.20581241E-02  0.30565754E-02  0.26625241E-02
 -0.24212682E-02 -0.55502587E-03  0.36017682E-03
 -0.31520766E-02 -0.65274887E-02  0.39563448E-02
  0.25897934E-02  0.41774519E-02  0.19482698E-02
 -0.46648734E-02 -0.39830358E-02 -0.24371856E-02
  0.39367329E-03  0.85958258E-02 -0.43552999E-02
 -0.52313753E-03 -0.21145172E-02 -0.10146029E-02
  0.35477038E-02  0.48199843E-03  0.19105934E-02
  0.78777938E-03  0.54417580E-02  0.12163482E-02
  0.14398757E-03  0.34632805E-03 -0.34121701E-03
 -0.32055123E-02  0.40839739E-02  0.15194155E-02
 -0.42501696E-02 -0.96072994E-03  0.61705820E-03
  0.32734651E-02  0.28693295E-02 -0.70478904E-03
  0.26961680E-02 -0.34899444E-03 -0.25948433E-03
 -0.17742112E-02 -0.33528492E-02  0.15608585E-02
  0.40202683E-02  0.41442995E-02  0.48688599E-02
 -0.26467451E-02  0.19103926E-02  0.33605823E-02
  0.64494736E-02 -0.68099751E-02  0.29548049E-02
  0.11611335E-02  0.57905980E-02 -0.89011554E-03
 -0.14296999E-03 -0.16810719E-02  0.55827328E-02
  0.30062913E-02  0.40793001E-03 -0.61763004E-03
  0.57802706E-02 -0.38447217E-02 -0.13478034E-02
  0.32123954E-03  0.31491432E-02 -0.11449511E-03
 -0.72523499E-02  0.79287232E-02 -0.26118123E-02
  0.65870621E-03 -0.34365688E-03 -0.69308598E-02
  0.89794305E-03  0.64251491E-03  0.26796416E-02
  0.27528512E-02  0.54383183E-04 -0.12058395E-02
 -0.80772216E-04 -0.85268222E-02 -0.10543648E-02
  0.21199126E-02  0.25701425E-02  0.12908241E-02
 -0.16355185E-02  0.32152712E-02 -0.30256006E-02
  0.14638910E-02  0.53268472E-02 -0.90933997E-02
  0.43833542E-02 -0.18354319E-02 -0.49389423E-03
 -0.18676225E-02  0.64901541E-03 -0.50604886E-02
  0.27568503E-03 -0.18803861E-03  0.25795582E-02
 -0.10982710E-02 -0.67755071E-03 -0.34620073E-02
  0.31786531E-03 -0.47111340E-02 -0.39698469E-02
 -0.24517796E-02 -0.15607287E-02  0.43791663E-02
 -0.26990744E-02 -0.16534324E-02 -0.26437856E-02
 -0.54202601E-02  0.49067029E-03  0.53908951E-03
 -0.24344966E-02 -0.44558756E-03 -0.25797763E-02
 -0.27629058E-02  0.22021033E-02 -0.12492713E-02
 -0.27636775E-02 -0.56610759E-02  0.16523407E-02
 -0.66949472E-02 -0.46503801E-02  0.11938142E-02
 -0.21836708E-02 -0.69900907E-03  0.21631891E-02
 -0.18874695E-03  0.19767142E-02  0.30871028E-02
 -0.24194835E-02  0.16850299E-02 -0.12759973E-02
  0.26246111E-02 -0.78283210E-04 -0.46077750E-03
 -0.10447675E-02  0.34626344E-02 -0.29132643E-02
 -0.35998241E-03  0.28486573E-03 -0.72219450E-03