4cLayer2                                
    1.000000000000000     
    14.0016529999999992    8.0838260000000002    0.0000000000000000
     0.0000000000000000   16.1677000000000000    0.0000000000000000
     0.0000000000000000    0.0000000000000000   30.0000000000000000
   C    P    S    Cu   In
    86    14    42     7     7
Selective dynamics
Direct
  0.0228445332578815  0.1416101855512153  0.2851784678485743   T   T   T
  0.1853540043414057  0.1180423580935468  0.2827934896675970   T   T   T
  0.3481502698427903  0.0925904700961482  0.2828069899069874   T   T   T
  0.5113139394948689  0.0679811247719257  0.2857124544798850   T   T   T
  0.6750326809045646  0.0463532857785651  0.2851434152466155   T   T   T
  0.8355636278774057  0.0228287098838251  0.2851854500452049   T   T   T
  0.0000001387887991  0.0001145823521540  0.2850622592428778   T   T   T
  0.0463539093912146  0.2786174060750142  0.2851431010065113   T   T   T
  0.2099275136465977  0.2553155945787040  0.2855459196162471   T   T   T
  0.3739153308452074  0.2299012842455923  0.2828304851276755   T   T   T
  0.5347576639320692  0.2099255060719187  0.2855459925474477   T   T   T
  0.6966052747114304  0.1853531191034179  0.2827934677277852   T   T   T
  0.8582162921918908  0.1649480324960351  0.2854857691813493   T   T   T
  0.0679835202377745  0.4207089729398774  0.2857124466348964   T   T   T
  0.2299143985965983  0.3961741704240822  0.2828306530012412   T   T   T
  0.3961823017906383  0.3739068500072023  0.2828306333668351   T   T   T
  0.5592606679428229  0.3481501275163978  0.2828069551861105   T   T   T
  0.7210946651589580  0.3247484320321945  0.2853916915524763   T   T   T
  0.8859335143833960  0.3015470120833044  0.2852728051388951   T   T   T
  0.0925910701494672  0.5592596659586491  0.2828070075850633   T   T   T
  0.2553203305914877  0.5347566222648368  0.2855451981001025   T   T   T
  0.4207094228898853  0.5113091353474033  0.2857125032027099   T   T   T
  0.5803470145365637  0.4884347189720089  0.2853924717173868   T   T   T
  0.7432835967651528  0.4653413308140060  0.2853200033144816   T   T   T
  0.9073750762189619  0.4407760890483488  0.2828289354485065   T   T   T
  0.1180427842318608  0.6966048537990304  0.2827934825398870   T   T   T
  0.2786151832259307  0.6750318320653719  0.2851428161602456   T   T   T
  0.4407771300040935  0.6518497894551842  0.2828289344359760   T   T   T
  0.6013515361971002  0.6317962836567261  0.2856958338752378   T   T   T
  0.7668587628110757  0.6013483109513018  0.2856956676347622   T   T   T
  0.9312236616828287  0.5803462432662130  0.2853918530405224   T   T   T
  0.1416082509561747  0.8355611295538310  0.2851843653778516   T   T   T
  0.3015493113546057  0.8125204301962015  0.2852727658617198   T   T   T
  0.4653435225473572  0.7913778865105670  0.2853195305413010   T   T   T
  0.6317961869720321  0.7668554503984808  0.2856957173885846   T   T   T
  0.7913797572261601  0.7432819781416455  0.2853193178446460   T   T   T
  0.9541596803475088  0.7210947568297144  0.2853915331804799   T   T   T
  0.1649541457482613  0.9768306464595753  0.2854849633738894   T   T   T
  0.3247522758849968  0.9541577978026723  0.2853910767245793   T   T   T
  0.4884361756947584  0.9312218338629492  0.2853917952973219   T   T   T
  0.6518506411350771  0.9073739486860788  0.2828289225061980   T   T   T
  0.8125233016352951  0.8859318644702654  0.2852725946337884   T   T   T
  0.9768357665178371  0.8582245389069101  0.2854873556547091   T   T   T
  0.1234192654008766  0.0780022355518355  0.2855313478502239   T   T   T
  0.2869699976643432  0.0547267473807054  0.2851549084542242   T   T   T
  0.4474080330490438  0.0317966327583505  0.2852738159640040   T   T   T
  0.6122480789577764  0.0085700283910981  0.2853759718016065   T   T   T
  0.1479818895446314  0.2152912618719185  0.2827946577955700   T   T   T
  0.3105320194976358  0.1917195364767821  0.2852326279978641   T   T   T
  0.4751226476997417  0.1683804552911354  0.2854572974236333   T   T   T
  0.6367279735932243  0.1479813599336524  0.2827946159761296   T   T   T
  0.7985819499136824  0.1234197202180951  0.2855316340016856   T   T   T
  0.9594244746103300  0.1034306652334465  0.2828350423695838   T   T   T
  0.0085743433194239  0.3791840240049211  0.2853774289889017   T   T   T
  0.1683870691081424  0.3564975520298859  0.2854546615655380   T   T   T
  0.3334189992966827  0.3331922530612630  0.2850534706548515   T   T   T
  0.4977453767952085  0.3105377625463888  0.2852332912994555   T   T   T
  0.6583042728816650  0.2869692991245358  0.2851537579986143   T   T   T
  0.8220230823102597  0.2653504403261522  0.2856943289453611   T   T   T
  0.9851836660978393  0.2407480179253056  0.2828052506844685   T   T   T
  0.0317986490542381  0.5207971562285678  0.2852737823919611   T   T   T
  0.1917230117573681  0.4977409592621740  0.2852347567633657   T   T   T
  0.3564978537739378  0.4751159769414315  0.2854571504301617   T   T   T
  0.5208004182909605  0.4474061159197191  0.2852739294295361   T   T   T
  0.6814879265179101  0.4259571689794655  0.2828281790765530   T   T   T
  0.8449007795895795  0.4021109118611363  0.2854131580166595   T   T   T
  0.0547281733544267  0.6583042387861369  0.2851561323508989   T   T   T
  0.2152920870359551  0.6367274323324992  0.2827946541485531   T   T   T
  0.3791852488880565  0.6122454686468615  0.2853753638521894   T   T   T
  0.5419432220712679  0.5900641873434793  0.2853185129062439   T   T   T
  0.7015462647844615  0.5664744399173713  0.2856930072762438   T   T   T
  0.8679977010420998  0.5419404935943177  0.2853180375803959   T   T   T
  0.0780054755282080  0.7985792672264722  0.2855307657637525   T   T   T
  0.2407484187605391  0.7740701807367003  0.2828053489853630   T   T   T
  0.4021147959170364  0.7529902856479112  0.2854137683567544   T   T   T
  0.5664777572760684  0.7319796088113435  0.2856930413453753   T   T   T
  0.7319823431070844  0.7015459614429673  0.2856930386165573   T   T   T
  0.8925564657120972  0.6814874393690431  0.2828281575529985   T   T   T
  0.1034242487240249  0.9371550504715174  0.2828352312431548   T   T   T
  0.2653530118268677  0.9126288733867227  0.2856942227651160   T   T   T
  0.4259581234620171  0.8925558965687159  0.2828281347588941   T   T   T
  0.5900666779068473  0.8679955335094292  0.2853180387725232   T   T   T
  0.7529913352233564  0.8448994779250683  0.2854133050234893   T   T   T
  0.9126289936188456  0.8220225019996548  0.2856942857635190   T   T   T
  0.7740705817532785  0.9851823482147637  0.2828053566539666   T   T   T
  0.9371539522174004  0.9594290148534483  0.2828353808342001   T   T   T
  0.8554099362738938  0.7119454592538830  0.0778270825896357   T   T   T
  0.4323488178750736  0.8557349058563091  0.0780229571364472   T   T   T
  0.7119405725326899  0.4327135140827920  0.0778568358910476   T   T   T
  0.2885233307476298  0.5678384839013546  0.0781655483672097   T   T   T
  0.5678680237568514  0.1436210522018797  0.0781595285021695   T   T   T
  0.1436362635935993  0.2885292845489005  0.0781658989159979   T   T   T
  0.0000216250771814  0.9999983279984477  0.0782896078849262   T   T   T
  0.0000183729470962  0.0000030354709182  0.1539539605995017   T   T   T
  0.8556461471030588  0.7112981272535990  0.1536071068097229   T   T   T
  0.4330229807319057  0.8557883189309052  0.1536696039486571   T   T   T
  0.7112659736173441  0.4331401916668227  0.1536233557951618   T   T   T
  0.2873886161119898  0.5699417099472015  0.1535102981796257   T   T   T
  0.5699870156493247  0.1426818555269591  0.1534968972219630   T   T   T
  0.1427098867326109  0.2873711529540373  0.1535132510918871   T   T   T
  0.9576821952164138  0.5778691630203170  0.0582721968540696   T   T   T
  0.5303911606985565  0.7209850304743597  0.0561621010200213   T   T   T
  0.1001911707098699  0.8647125876820851  0.0585862063709968   T   T   T
  0.8117793623612286  0.2966910397424130  0.0583337118225629   T   T   T
  0.3890056596073066  0.4327701984705214  0.0586541358715849   T   T   T
  0.6681305334729331  0.0088381142758891  0.0583651610911815   T   T   T
  0.2441265751221948  0.1531388391683350  0.0584104066976963   T   T   T
  0.7217651093341431  0.7467899852799889  0.0545182512422642   T   T   T
  0.2965803465834540  0.8916220481177177  0.0583047266563881   T   T   T
  0.5778769544746893  0.4644290244135973  0.0582549571648556   T   T   T
  0.1531395245088945  0.6027474512039319  0.0584088014067419   T   T   T
  0.8647303982185761  0.0351348988104689  0.0585758710654432   T   T   T
  0.4327835069794617  0.1782231896202759  0.0586581222784091   T   T   T
  0.0088614168093883  0.3230403718763526  0.0583683963534298   T   T   T
  0.8916111722043070  0.8118057849391178  0.0582835472765311   T   T   T
  0.4645467733590820  0.9575358123553315  0.0582459701306419   T   T   T
  0.7468020746730133  0.5314682108958593  0.0545565224317173   T   T   T
  0.3229948431274252  0.6680906011480801  0.0583623550569428   T   T   T
  0.6027811193772621  0.2440969089090075  0.0583930709459324   T   T   T
  0.1782518481219739  0.3889920149538284  0.0586515649745749   T   T   T
  0.0351293771769079  0.1001741202173392  0.0585775214231958   T   T   T
  0.9892508611524917  0.6774709659357541  0.1718666245482225   T   T   T
  0.5670858498662881  0.8205168246487347  0.1715875991368563   T   T   T
  0.1345265225875778  0.9650969392429474  0.1716529395310076   T   T   T
  0.8467351312393845  0.3984862973411936  0.1673578051916493   T   T   T
  0.4219151069581102  0.5328797382541381  0.1719829500024730   T   T   T
  0.7089906066043810  0.1019677652285580  0.1673440289992953   T   T   T
  0.2779233295215491  0.2452564179161740  0.1723626434401311   T   T   T
  0.7548265195131734  0.8467295998737896  0.1673563322980627   T   T   T
  0.3332118615538846  0.9893961146196446  0.1719192981541653   T   T   T
  0.6124992475403417  0.5671101909875205  0.1715663890460633   T   T   T
  0.1890683667345030  0.7089484712510270  0.1673564392126750   T   T   T
  0.9004187597927427  0.1345139886183873  0.1716500664269063   T   T   T
  0.4768900382780146  0.2779118759180719  0.1723434533750421   T   T   T
  0.0452527747037905  0.4218976892008257  0.1719889651786630   T   T   T
  0.9651155862208043  0.9003958115310979  0.1716547992808373   T   T   T
  0.8204735010828372  0.6124594925642128  0.1715494274428337   T   T   T
  0.3984477705725595  0.7548980254510766  0.1674082168246045   T   T   T
  0.6775192335586269  0.3332801620404240  0.1718656281585851   T   T   T
  0.2452587831644095  0.4768552782231268  0.1723655741856760   T   T   T
  0.5329103511921147  0.0452288920608908  0.1719852689059920   T   T   T
  0.1020145230213174  0.1890574621871863  0.1673593225558747   T   T   T
  0.6161136631102551  0.9045496361314207  0.0676583589803244   T   T   T
  0.9045531030916365  0.4793420120115641  0.0676598263878958   T   T   T
  0.4792718427299860  0.6160927496354560  0.0677496872891084   T   T   T
  0.0481769182869343  0.7592887926515530  0.0683259246449097   T   T   T
  0.7592923071937108  0.1925390144682098  0.0683266135606360   T   T   T
  0.3333462132999045  0.3333317766181452  0.0683725645066673   T   T   T
  0.1925393576048791  0.0481753751438418  0.0683262379261791   T   T   T
  0.8123530907658605  0.9476062129034091  0.1224775719135067   T   T   T
  0.6667977725332648  0.6667278021904366  0.1222592572610992   T   T   T
  0.2401825547849512  0.8122302345128816  0.1225503117184843   T   T   T
  0.9476787636756399  0.2400928854127073  0.1225072519426718   T   T   T
  0.5253843559625437  0.3804865113240226  0.1239165081290210   T   T   T
  0.0942482571537084  0.5252755955418920  0.1239091867287243   T   T   T
  0.3805029004653022  0.0942042395693790  0.1239664536507163   T   T   T
 
  0.00000000E+00  0.00000000E+00  0.00000000E+00
  0.00000000E+00  0.00000000E+00  0.00000000E+00
  0.00000000E+00  0.00000000E+00  0.00000000E+00
  0.00000000E+00  0.00000000E+00  0.00000000E+00
  0.00000000E+00  0.00000000E+00  0.00000000E+00
  0.00000000E+00  0.00000000E+00  0.00000000E+00
  0.00000000E+00  0.00000000E+00  0.00000000E+00
  0.00000000E+00  0.00000000E+00  0.00000000E+00
  0.00000000E+00  0.00000000E+00  0.00000000E+00
  0.00000000E+00  0.00000000E+00  0.00000000E+00
  0.00000000E+00  0.00000000E+00  0.00000000E+00
  0.00000000E+00  0.00000000E+00  0.00000000E+00
  0.00000000E+00  0.00000000E+00  0.00000000E+00
  0.00000000E+00  0.00000000E+00  0.00000000E+00
  0.00000000E+00  0.00000000E+00  0.00000000E+00
  0.00000000E+00  0.00000000E+00  0.00000000E+00
  0.00000000E+00  0.00000000E+00  0.00000000E+00
  0.00000000E+00  0.00000000E+00  0.00000000E+00
  0.00000000E+00  0.00000000E+00  0.00000000E+00
  0.00000000E+00  0.00000000E+00  0.00000000E+00
  0.00000000E+00  0.00000000E+00  0.00000000E+00
  0.00000000E+00  0.00000000E+00  0.00000000E+00
  0.00000000E+00  0.00000000E+00  0.00000000E+00
  0.00000000E+00  0.00000000E+00  0.00000000E+00
  0.00000000E+00  0.00000000E+00  0.00000000E+00
  0.00000000E+00  0.00000000E+00  0.00000000E+00
  0.00000000E+00  0.00000000E+00  0.00000000E+00
  0.00000000E+00  0.00000000E+00  0.00000000E+00
  0.00000000E+00  0.00000000E+00  0.00000000E+00
  0.00000000E+00  0.00000000E+00  0.00000000E+00
  0.00000000E+00  0.00000000E+00  0.00000000E+00
  0.00000000E+00  0.00000000E+00  0.00000000E+00
  0.00000000E+00  0.00000000E+00  0.00000000E+00
  0.00000000E+00  0.00000000E+00  0.00000000E+00
  0.00000000E+00  0.00000000E+00  0.00000000E+00
  0.00000000E+00  0.00000000E+00  0.00000000E+00
  0.00000000E+00  0.00000000E+00  0.00000000E+00
  0.00000000E+00  0.00000000E+00  0.00000000E+00
  0.00000000E+00  0.00000000E+00  0.00000000E+00
  0.00000000E+00  0.00000000E+00  0.00000000E+00
  0.00000000E+00  0.00000000E+00  0.00000000E+00
  0.00000000E+00  0.00000000E+00  0.00000000E+00
  0.00000000E+00  0.00000000E+00  0.00000000E+00
  0.00000000E+00  0.00000000E+00  0.00000000E+00
  0.00000000E+00  0.00000000E+00  0.00000000E+00
  0.00000000E+00  0.00000000E+00  0.00000000E+00
  0.00000000E+00  0.00000000E+00  0.00000000E+00
  0.00000000E+00  0.00000000E+00  0.00000000E+00
  0.00000000E+00  0.00000000E+00  0.00000000E+00
  0.00000000E+00  0.00000000E+00  0.00000000E+00
  0.00000000E+00  0.00000000E+00  0.00000000E+00
  0.00000000E+00  0.00000000E+00  0.00000000E+00
  0.00000000E+00  0.00000000E+00  0.00000000E+00
  0.00000000E+00  0.00000000E+00  0.00000000E+00
  0.00000000E+00  0.00000000E+00  0.00000000E+00
  0.00000000E+00  0.00000000E+00  0.00000000E+00
  0.00000000E+00  0.00000000E+00  0.00000000E+00
  0.00000000E+00  0.00000000E+00  0.00000000E+00
  0.00000000E+00  0.00000000E+00  0.00000000E+00
  0.00000000E+00  0.00000000E+00  0.00000000E+00
  0.00000000E+00  0.00000000E+00  0.00000000E+00
  0.00000000E+00  0.00000000E+00  0.00000000E+00
  0.00000000E+00  0.00000000E+00  0.00000000E+00
  0.00000000E+00  0.00000000E+00  0.00000000E+00
  0.00000000E+00  0.00000000E+00  0.00000000E+00
  0.00000000E+00  0.00000000E+00  0.00000000E+00
  0.00000000E+00  0.00000000E+00  0.00000000E+00
  0.00000000E+00  0.00000000E+00  0.00000000E+00
  0.00000000E+00  0.00000000E+00  0.00000000E+00
  0.00000000E+00  0.00000000E+00  0.00000000E+00
  0.00000000E+00  0.00000000E+00  0.00000000E+00
  0.00000000E+00  0.00000000E+00  0.00000000E+00
  0.00000000E+00  0.00000000E+00  0.00000000E+00
  0.00000000E+00  0.00000000E+00  0.00000000E+00
  0.00000000E+00  0.00000000E+00  0.00000000E+00
  0.00000000E+00  0.00000000E+00  0.00000000E+00
  0.00000000E+00  0.00000000E+00  0.00000000E+00
  0.00000000E+00  0.00000000E+00  0.00000000E+00
  0.00000000E+00  0.00000000E+00  0.00000000E+00
  0.00000000E+00  0.00000000E+00  0.00000000E+00
  0.00000000E+00  0.00000000E+00  0.00000000E+00
  0.00000000E+00  0.00000000E+00  0.00000000E+00
  0.00000000E+00  0.00000000E+00  0.00000000E+00
  0.00000000E+00  0.00000000E+00  0.00000000E+00
  0.00000000E+00  0.00000000E+00  0.00000000E+00
  0.00000000E+00  0.00000000E+00  0.00000000E+00
  0.00000000E+00  0.00000000E+00  0.00000000E+00
  0.00000000E+00  0.00000000E+00  0.00000000E+00
  0.00000000E+00  0.00000000E+00  0.00000000E+00
  0.00000000E+00  0.00000000E+00  0.00000000E+00
  0.00000000E+00  0.00000000E+00  0.00000000E+00
  0.00000000E+00  0.00000000E+00  0.00000000E+00
  0.00000000E+00  0.00000000E+00  0.00000000E+00
  0.00000000E+00  0.00000000E+00  0.00000000E+00
  0.00000000E+00  0.00000000E+00  0.00000000E+00
  0.00000000E+00  0.00000000E+00  0.00000000E+00
  0.00000000E+00  0.00000000E+00  0.00000000E+00
  0.00000000E+00  0.00000000E+00  0.00000000E+00
  0.00000000E+00  0.00000000E+00  0.00000000E+00
  0.00000000E+00  0.00000000E+00  0.00000000E+00
  0.00000000E+00  0.00000000E+00  0.00000000E+00
  0.00000000E+00  0.00000000E+00  0.00000000E+00
  0.00000000E+00  0.00000000E+00  0.00000000E+00
  0.00000000E+00  0.00000000E+00  0.00000000E+00
  0.00000000E+00  0.00000000E+00  0.00000000E+00
  0.00000000E+00  0.00000000E+00  0.00000000E+00
  0.00000000E+00  0.00000000E+00  0.00000000E+00
  0.00000000E+00  0.00000000E+00  0.00000000E+00
  0.00000000E+00  0.00000000E+00  0.00000000E+00
  0.00000000E+00  0.00000000E+00  0.00000000E+00
  0.00000000E+00  0.00000000E+00  0.00000000E+00
  0.00000000E+00  0.00000000E+00  0.00000000E+00
  0.00000000E+00  0.00000000E+00  0.00000000E+00
  0.00000000E+00  0.00000000E+00  0.00000000E+00
  0.00000000E+00  0.00000000E+00  0.00000000E+00
  0.00000000E+00  0.00000000E+00  0.00000000E+00
  0.00000000E+00  0.00000000E+00  0.00000000E+00
  0.00000000E+00  0.00000000E+00  0.00000000E+00
  0.00000000E+00  0.00000000E+00  0.00000000E+00
  0.00000000E+00  0.00000000E+00  0.00000000E+00
  0.00000000E+00  0.00000000E+00  0.00000000E+00
  0.00000000E+00  0.00000000E+00  0.00000000E+00
  0.00000000E+00  0.00000000E+00  0.00000000E+00
  0.00000000E+00  0.00000000E+00  0.00000000E+00
  0.00000000E+00  0.00000000E+00  0.00000000E+00
  0.00000000E+00  0.00000000E+00  0.00000000E+00
  0.00000000E+00  0.00000000E+00  0.00000000E+00
  0.00000000E+00  0.00000000E+00  0.00000000E+00
  0.00000000E+00  0.00000000E+00  0.00000000E+00
  0.00000000E+00  0.00000000E+00  0.00000000E+00
  0.00000000E+00  0.00000000E+00  0.00000000E+00
  0.00000000E+00  0.00000000E+00  0.00000000E+00
  0.00000000E+00  0.00000000E+00  0.00000000E+00
  0.00000000E+00  0.00000000E+00  0.00000000E+00
  0.00000000E+00  0.00000000E+00  0.00000000E+00
  0.00000000E+00  0.00000000E+00  0.00000000E+00
  0.00000000E+00  0.00000000E+00  0.00000000E+00
  0.00000000E+00  0.00000000E+00  0.00000000E+00
  0.00000000E+00  0.00000000E+00  0.00000000E+00
  0.00000000E+00  0.00000000E+00  0.00000000E+00
  0.00000000E+00  0.00000000E+00  0.00000000E+00
  0.00000000E+00  0.00000000E+00  0.00000000E+00
  0.00000000E+00  0.00000000E+00  0.00000000E+00
  0.00000000E+00  0.00000000E+00  0.00000000E+00
  0.00000000E+00  0.00000000E+00  0.00000000E+00
  0.00000000E+00  0.00000000E+00  0.00000000E+00
  0.00000000E+00  0.00000000E+00  0.00000000E+00
  0.00000000E+00  0.00000000E+00  0.00000000E+00
  0.00000000E+00  0.00000000E+00  0.00000000E+00
  0.00000000E+00  0.00000000E+00  0.00000000E+00
  0.00000000E+00  0.00000000E+00  0.00000000E+00
  0.00000000E+00  0.00000000E+00  0.00000000E+00
  0.00000000E+00  0.00000000E+00  0.00000000E+00
  0.00000000E+00  0.00000000E+00  0.00000000E+00
  0.00000000E+00  0.00000000E+00  0.00000000E+00
  0.00000000E+00  0.00000000E+00  0.00000000E+00
