largec1CONTCARfar                       
   1.00000000000000     
    28.0032997130999988    0.0000000000000000    0.0000000000000000
     0.0000000000000000   16.1676998137999988    0.0000000000000000
     0.0000000000000000    0.0000000000000000   30.0000000000000000
   C    P    S    Cu   In
   172    28    84    14    14
Direct
  0.2335178664705773  0.2443880169262741  0.4004160435469351
  0.7335626707221083  0.7383775632546927  0.3983536961846044
  0.3014685349281916  1.1492618019619945  0.4085232107463618
  0.8012340047006276  0.6408386098645431  0.3977721333598652
  0.3725900441412321  1.0554392556562771  0.4145601743115339
  0.8701477476436296  0.5486555451743119  0.3973058000517750
  0.4427408490113772  0.9616298139704834  0.4073213979777133
  0.9419829686268332  0.4568219878901579  0.3956057962054098
  0.5140593134694759  0.8628241460962345  0.4045100145755572
  1.0137698248251530  0.3631072670787764  0.3939932265606341
  0.5819890973142611  0.7718064629428999  0.4054281616264622
  1.0828702529143928  0.2756988489328204  0.3913300681398222
  0.1506642379851227  0.1854317445634163  0.3958855194413892
  0.6512895914845669  0.6792953225859656  0.4083163860104640
  0.3140448463330593  0.2978397366499377  0.4088097888733205
  0.8148805268293495  0.7968212825407340  0.3956436144162112
  0.3845939322233731  0.2050973816517651  0.4089437104746571
  0.8828813029251773  0.7022953994551621  0.3987818466754323
  0.4541769957792368  1.1114609623350629  0.4126818313703530
  0.9540732885033232  0.6107512172182189  0.3946620721259185
  0.5252217796769140  1.0197263961643299  0.4098927864149496
  1.0234584906882485  0.5183756355041815  0.3943591112604242
  0.5937390212891289  0.9239293570685432  0.4064493975259350
  1.0936380578054801  0.4255464154446021  0.3934690079616516
  0.1639918840270268  0.3365828757866303  0.3973367962263148
  0.6618453744458088  0.8324389265303516  0.3996058661251702
  0.3975622090747984  0.3552053863035913  0.4086784751755841
  0.8963843102551020  0.8510054574381158  0.3885722711843304
  0.4670122349898345  0.2597257984327833  0.4088516735803484
  0.9677561022801400  0.7621012776987121  0.3926829812394484
  0.5352250158863171  1.1685731379392428  0.4142466650154411
  1.0359733188180074  0.6690546375370368  0.3945098813734023
  0.6070195092703475  1.0743940648879031  0.4098036903949921
  1.1040474556699913  0.5782371504309407  0.3960117878868781
  0.1770963411397578  0.4857729745487078  0.3960473401927133
  0.6751749028985496  0.9816371269657638  0.4009525916102197
  0.2457136951518750  0.3949907852324501  0.4044650137237139
  0.7441239542140351  0.8886565246634525  0.3975318812466179
  0.4765688138755936  0.4148223586514948  0.4078793953819513
  0.9786027774518626  0.9121669028528067  0.3899403224834277
  0.5481258252156802  0.3178664154329126  0.4121193571563381
  1.0486641783142412  0.8189944878260537  0.3938905411839487
  0.6171919783431877  0.2270081787531374  0.4161664443024019
  1.1168439085496877  0.7271268076709315  0.3954999478416837
  0.1886382655847622  0.6337999139325291  0.4016968801701538
  0.6883898254331563  1.1323173115944754  0.4100074409888078
  0.2596908795217187  0.5429628757700683  0.4051410005872800
  0.7592150768992979  1.0383463183664776  0.4002981524062170
  0.3296143077987493  0.4494011131679437  0.4086680937183454
  0.8282338135921540  0.9469481936772695  0.3948784226806601
  0.5568923387531605  0.4723752214185366  0.4110544607811001
  1.0603003362485997  0.9724062937785632  0.3883222605528329
  0.6280279692252838  0.3797302632358647  0.4125698821293069
  1.1289818001098633  0.8746990850470978  0.3929577975230659
  0.1996162287754183  0.7847800658967063  0.4001111600748021
  0.6977389730771840  0.2854179588554849  0.4136668911095185
  0.2689782364267191  0.6955509712896226  0.4051221785731920
  0.7689603639148099  0.1877389728833157  0.4103081633237223
  0.3403549621281732  0.6004018798209383  0.4074461398622815
  0.8394438845184130  1.0969207306769215  0.4000706903230207
  0.4078670238593747  0.5066580109141718  0.4074696025806112
  0.9076163606307442  1.0032925221106934  0.3954654215884965
  0.6396682115224666  0.5283582973302418  0.4079424333195008
  1.1407675611802597  1.0316000519765083  0.3954960231617849
  0.2093351065629805  0.9388202721751860  0.4014949809994098
  0.7096307285249269  0.4381256000689024  0.4082785941359443
  0.2793769361973381  0.8462644229680163  0.4027646409632517
  0.7793670908976031  0.3431433063019964  0.4078551481060777
  0.3514561554772425  0.7540852998480244  0.4045152306275256
  0.8485515620850954  0.2481313887719761  0.4007187698756444
  0.4188532730094926  0.6591582120868252  0.4055486394322004
  0.9199157458695082  1.1541990455001729  0.3963154959036728
  0.4884871087275705  0.5686859607888137  0.4069221723146135
  0.9879113733386287  1.0603305457077847  0.3934949127597269
  0.2217274797277866  1.0902281854919489  0.3962608193100177
  0.7202993420196175  0.5880589814966067  0.4006618173598221
  0.2917817846110533  0.9991106946676012  0.4076370706479261
  0.7888676850333890  0.4937182149709664  0.4025085021781086
  0.3616819603195613  0.9048888143630599  0.4062552484974741
  0.8595071979900865  0.3990494717031614  0.3987727320764528
  0.4317378610949009  0.8108627515015328  0.4052741427061440
  0.9323280182033266  0.3047871132678216  0.3954428968456584
  0.4999901511460876  0.7132987624758348  0.3991663983039177
  1.0019888775390966  0.2134818871532807  0.3913140781601867
  0.5716535311267459  0.6237821970476901  0.4075667897128274
  1.0701450106424992  1.1230914675339638  0.3898032840595863
  0.2514895613966799  1.1638420683617303  0.4020091490442044
  0.7524509575385885  0.6557734851247928  0.3994660426312070
  0.3206873160983829  1.0693055470159907  0.4106116963031632
  0.8204898047715101  0.5576092994483707  0.3995686754621572
  0.3925293562249589  0.9729591899595829  0.4121736671824446
  0.8899844347241569  0.4690728187426944  0.3987279444299076
  0.4636021406360711  0.8770029111875787  0.4038067997464433
  0.9638313844673227  0.3755937443057498  0.3969072102730524
  0.3337166251190331  0.2168142021924599  0.4096466826406143
  0.8334203898835886  0.7121443665435933  0.3948746034999341
  0.4043773557010736  1.1229362214817389  0.4113308041720342
  0.9028265109315580  0.6192784807248599  0.3962859986908305
  0.4741020690316166  1.0292471929843143  0.4109009962565681
  0.9737830147630625  0.5310252985391536  0.3922714568346116
  0.5442068692616193  0.9358342764177109  0.4062517758891903
  1.0422834758808854  0.4352617467024398  0.3928152820138265
  0.6139322876060477  0.8437430304523722  0.4046038673201350
  1.1132142290453710  0.3464692479143241  0.3937340067373484
  0.1826283492908653  0.2538193670166524  0.3962765082385090
  0.6836546181586568  0.7469778096835784  0.4009727344416016
  0.3461182773509431  0.3631661757384337  0.4119693595770187
  0.8491300024955757  0.8646741077398201  0.3899246708938631
  0.4174723859036497  0.2737029007986470  0.4075521778288847
  0.9173794244513067  0.7710982785826155  0.3917721642488491
  0.4856717381832015  1.1792265124463748  0.4109520189906389
  0.9852082614848778  0.6800812161294765  0.3917280655770306
  0.5567880364862799  1.0859968930596833  0.4125254615019935
  1.0552743947854217  0.5883067264932466  0.3962482693023940
  0.6257079575164693  0.9954902529799788  0.4052109308509906
  1.1253959917819898  0.4949853346753030  0.3960208981759399
  0.1944301939155090  0.4055787751659151  0.3996354882170172
  0.6944209343639145  0.8977240641635389  0.3983105478269863
  0.2661919093266606  0.3120615738306271  0.4035563664604661
  0.7646160729365451  0.8084785842521750  0.3975932635221225
  0.4266727798962036  0.4252115971961203  0.4068530051240243
  0.9281826965978864  0.9208528386750400  0.3897132082112968
  0.4978205720564441  0.3311246070385703  0.4095512585685115
  0.9981428769149765  0.8329159445946531  0.3915712384553935
  0.5678334471801167  0.2371225999300506  0.4164599890808807
  1.0670394484549686  0.7370101258130636  0.3948983443442937
  0.6370295561953437  1.1429601410920052  0.4143155602519637
  1.1370176070614502  0.6481845114983655  0.3990517653678931
  0.2082206563272020  0.5515483024608547  0.4008019903265197
  0.7073852667336952  1.0496055847146621  0.4040234203907624
  0.2774761857760664  0.4627964409944112  0.4060098797471422
  0.7782381021341336  0.9578006288659069  0.3951940884379805
  0.5080014618846860  0.4851341712539903  0.4106034378184006
  1.0086005234725515  0.9827229420485578  0.3888761315866617
  0.5771796103908026  0.3896760959379162  0.4140858207403456
  1.0794548011411400  0.8876823905178214  0.3878274797513475
  0.6471820273855553  0.2967866233520622  0.4144009657453637
  1.1487187614703269  0.7927113776245289  0.3961573975932837
  0.2191712325261264  0.7050401229058529  0.4044299860994170
  0.7176279630243373  0.2025363895780513  0.4103645103768063
  0.2890635479590757  0.6113181939266839  0.4054909464986946
  0.7887531095345929  1.1087474666891997  0.4057483470308844
  0.3586464631350700  0.5201065436775872  0.4102617528607080
  0.8595550597134478  1.0184928013141523  0.4002056494767279
  0.5889439608680571  0.5386382656241645  0.4104834577478299
  1.0904474283871015  1.0440652810564472  0.3894693866703105
  0.1590575963870053  0.9446961447287390  0.3964026771768822
  0.6594772910876386  0.4509178888837208  0.4119757062975167
  0.2273701308098730  0.8558879717858919  0.4011099669867993
  0.7290732807675794  0.3552759556514348  0.4100762174867781
  0.2991225218311134  0.7662599283722441  0.4051013441086476
  0.7990613497557025  0.2603300087203675  0.4105931214199996
  0.3689274266537301  0.6727101927983391  0.4057696970002540
  0.8682494153647830  1.1692206248881869  0.3988484254477368
  0.4379929603196794  0.5775180131804639  0.4031740298130423
  0.9395665104012354  1.0743547228670236  0.3948654268512288
  0.1704097502847090  1.1045958608845774  0.3946519004478362
  0.6700239473779860  0.5971286926338171  0.4041224229848222
  0.2409179796989181  1.0094754608751588  0.4029933059847362
  0.7402641427901129  0.5067656006187247  0.4038463502748521
  0.3103639717222897  0.9170414954885298  0.4069844139776825
  0.8093927434596611  0.4127005036213143  0.4027773976086786
  0.3806003669548164  0.8243607315459045  0.4050914365639601
  0.8810079386211310  0.3187378959615783  0.3988155988317455
  0.4502185866681316  0.7285519650911046  0.4014520525890037
  0.9520291109006968  0.2222241103607767  0.3916725605973328
  0.5199196072779420  0.6333953729291026  0.4066673431612751
  1.0193986984290868  1.1322817048879705  0.3935392463304808
  0.5320691491176871  0.7832808527374533  0.4009144753535158
  1.0333901007903334  0.2844037249655236  0.3891030286634370
  0.6023991757199034  0.6918475135646821  0.4088259348312176
  1.1013695639818617  0.1963896049349530  0.3919776873745265
  0.2284242769084322  0.3609652469348584  0.1939105954565386
  0.7321171591689843  0.8803859390176793  0.1792863780577103
  0.0943634852919110  0.6494255108215253  0.1802344643221533
  0.5910790373285774  0.1560352817664029  0.1980914598758973
  0.0113500424263976  0.2811947983691780  0.1835986875134818
  0.5183402594681680  0.8004431511199380  0.1855266958471011
  0.3773158030618902  0.0845611848088560  0.2009449818463841
  0.8791335237465170  0.5740892618701503  0.1842118447161769
  0.3057379672255290  0.7214666258009491  0.1934952850048713
  0.8088949845745942  0.2255155446723076  0.1890488125538122
  0.1665138561178188  0.0052532509749879  0.1831778306985720
  0.6653753543518188  0.5122959723694065  0.1903836894582397
 -0.0554635348849624  0.9320830570203574  0.1879231761335222
  0.4433441924788564  0.4323068958179983  0.1917726099435149
 -0.0505642884432383  0.9404842251387713  0.2656546834464980
  0.4487454377809016  0.4437687803153860  0.2673445592053756
  0.2297641731455899  0.3580839132012558  0.2703605056486804
  0.7338724157522862  0.8768266201761983  0.2537348346090839
  0.0908165954759356  0.6464768495744084  0.2578507215280372
  0.5916040561619961  0.1603207012746372  0.2714790944806024
  0.0111768116062485  0.2926020726694116  0.2595207066131794
  0.5228491234623762  0.7951726761739217  0.2596926682729353
  0.3728415622332875  0.0858898787825625  0.2774927690505796
  0.8807966175235969  0.5810424441731689  0.2577279626067033
  0.3047092734376444  0.7152263192118630  0.2741002815075050
  0.8081629260542019  0.2291219694301752  0.2685059497837942
  0.1613970178682564  0.0019971765749489  0.2573301420103047
  0.6668131819450944  0.5194331167966639  0.2670117136498562
  0.2116281548684258  0.2449950898061131  0.1683206383733646
  0.7169234460142866  0.7623293390560117  0.1587118069469646
  0.0742683653156742  0.5240161897934449  0.1600563930074131
  0.5670293893271736  0.0424230634659206  0.1744455504969270
  0.4190528534862058  0.3241755753484918  0.1751123650491274
  0.9195953476532591  0.8202895435622070  0.1717835463035517
 -0.0012095204957788  0.1680367509036768  0.1579793944831168
  0.4969787223452604  0.6861290302569568  0.1706646207692945
  0.3554063951426568 -0.0367821064257033  0.1799280243800799
  0.8460998433529051  0.4686850990444322  0.1671307210259331
  0.2759563585474851  0.6158652445555816  0.1717485965788434
  0.7770055760389268  0.1216937018026610  0.1728107089316200
  0.1515111042749588  0.8924727470202247  0.1590832047078909
  0.6445697643811150  0.3944932301231598  0.1683537981620450
  0.1841134648858068  0.4517251683195844  0.1735187339376495
  0.6832237554438175 -0.0346763137355474  0.1590600946519741
  0.0470042449601538  0.7355479155415285  0.1584821320352355
  0.5397804448378523  0.2421526517330700  0.1713021960033098
 -0.0343498460592262  0.3773485813779539  0.1606238623842404
  0.4653011910516942  0.8801829152044949  0.1692323088134846
  0.3337042665751458  0.1728920373187232  0.1803201427369840
  0.8436683219517360  0.6749839365120304  0.1613193184846070
  0.4054635577085567  0.5313937656805273  0.1732144864224250
  0.9055345142003419  0.0243724122549830  0.1653215937664611
  0.2624654461747454  0.8138157900749573  0.1790873201395945
  0.7659698639351847  0.3202185532491809  0.1695412431346421
  0.1159195191061550  0.0887308787487577  0.1584938455765606
  0.6143347255854061  0.5997831760420534  0.1671281232364138
  0.2976474102734640  0.3785835286113168  0.1734285439140936
  0.8004632513716372  0.9097681949677187  0.1589938793995251
  0.1609119008591173  0.6683483951288298  0.1622899391872943
  0.6559739483857637  0.1742630964682684  0.1730126724761943
  0.0774369804728230  0.3318140367762681  0.1623769249626890
  0.5860049568574572  0.8341584810283756  0.1625357570668410
  0.4456520313482168  0.1199261784960751  0.1787354875284921
  0.9486105900933893  0.6002142588799450  0.1672616898721217
  0.3730942292250971  0.7396633551780375  0.1861178766482798
  0.8802261728091416  0.2372014517334246  0.1775531524017504
  0.2332447503182230  0.0242864401010422  0.1714584277591217
  0.7327641704885651  0.5289713118583387  0.1647448554306744
  0.0136100671575555 -0.0385603822213517  0.1636501447812700
  0.5111810913029605  0.4650268606692936  0.1673063050629896
  0.2701639372863975  0.2572498570940164  0.2924281490908532
  0.7809349853111717  0.7869930083679981  0.2708067694070605
  0.1339204098619484  0.5486511562288622  0.2805313380705717
  0.6384026439256018  0.0648769215594663  0.2859817589284198
 -0.0049625171121976  0.8474577886379814  0.2805127876626936
  0.4940844180063506  0.3600568837668399  0.2928492339540859
  0.0570683864070570  0.2062996426343454  0.2773028598010463
  0.5694445302290799  0.7096924073295162  0.2774427656756291
  0.4201126213586139 -0.0017784852978977  0.2997450854668884
  0.9207469950404713  0.4876895905498165  0.2759374783473326
  0.3416890777223384  0.6133209593380329  0.2949582667321418
  0.8457059371021590  0.1299311133352719  0.2874679470928925
  0.2001226532964650  0.8996028284628242  0.2786362705330047
  0.7074208837018711  0.4244431321535980  0.2866874072887264
  0.2580950183128152  0.4674905511017657  0.2929723734625398
  0.7619814576141549 -0.0095807768395819  0.2753065035561585
  0.1130024083034703  0.7627878598271212  0.2731836811584049
  0.6193435342604271  0.2714249783875080  0.2814977974100870
  0.0354151725249201  0.4111586318084935  0.2721338663869905
  0.5442094071428155  0.9021741549934972  0.2856271418842929
  0.3962656212740445  0.1966431482868435  0.3005187665423329
  0.9075122524482748  0.6999541412236941  0.2726847457824587
 -0.0250922070845297  0.0582301199979711  0.2841265740266329
  0.4767283343506742  0.5542992995879540  0.2868744612043937
  0.3313301413061195  0.8305917178641647  0.2949581135122859
  0.8352261293949373  0.3475423892533627  0.2827499809702274
  0.1805682598056759  0.1158932267217734  0.2740810477124971
  0.6956182529843953  0.6297648724881483  0.2759004994610608
  0.3748886683750719  0.4292166579444436  0.2891653261639242
  0.8771710287783344  0.9312122548126512  0.2798858632561296
  0.1580744880869530  0.3348107330878486  0.2829774111193534
  0.6660454308546452  0.8652436755927865  0.2786742231053491
  0.0208346119844587  0.6289959695413300  0.2672386596019888
  0.5249698415695362  0.1448542596730104  0.2925736776337955
 -0.0550831311079402  0.2850104814583552  0.2849980580384942
  0.4515918534694849  0.7723783225268400  0.2798131398054768
  0.3031646519435713  0.0609144474547740  0.2919356382963177
  0.8137737001021642  0.5746320958078688  0.2843287050281196
  0.2331005709007462  0.7064041100184921  0.2972126562532721
  0.7408363019492160  0.2162397973813340  0.2927898747386874
  0.0907050966806617 -0.0295890706033304  0.2741594127277563
  0.5990191129195150  0.4998878297029735  0.2837795944212015
  0.2062048656894396  0.5743342446692935  0.2868232280104219
  0.7122246135665807  0.0865567703586175  0.2783986310425489
  0.1324401673504285  0.2267009104712925  0.1694166485082709
  0.6422981916094758  0.7408158469593499  0.1710740108605656
 -0.0030610003469856  0.5000174314451885  0.1713777577252849
  0.4896378528642261  0.0048332818064427  0.1914187218188884
  0.3451784515758902  0.2931656704826345  0.2856272552164659
  0.8598002595833126  0.7954952677960332  0.2643246555974514
  0.4196216260879849  0.6414936176127510  0.2717438481361041
  0.9207206037958470  0.1546761866009791  0.2652660069591229
  0.2750839481569191  0.9413339724950336  0.2771961781462653
  0.7848661590071703  0.4444112760909147  0.2786544631873217
  0.0740088457301940  0.8676064936422705  0.1765012180701876
  0.5680182240976538  0.3726582275356769  0.1789967047785014
  0.3229509396152679  0.5054667325839786  0.2243491547752794
  0.8302922919547818  0.0130339564440388  0.2150865909332857
  0.1171633753859424  0.4203926800493154  0.2212598293347984
  0.6200495905739969  0.9517072531125618  0.2217011344472877
 -0.0210810386272688  0.7211288608904219  0.2162585999129492
  0.4698353099878328  0.2378353338934121  0.2399284646322160
  0.0456868926646732  0.0764120423204176  0.2167346750181629
  0.5440331217500409  0.5930540414218064  0.2294596504343859
  0.3931455914079062  0.8806487347153045  0.2416697568449456
  0.8974896394994369  0.3725737564448197  0.2181946432837636
  0.2573483289334066  0.1430421736008314  0.2231817425677744
  0.7666486083701166  0.6504416170620456  0.2097622895408048
  0.1902415253346417  0.7696955185211397  0.2237126406793983
  0.6921705826984123  0.2883293725658342  0.2271040229090556
 
 -0.44891616E-02 -0.15905997E-02 -0.27677127E-02
 -0.18742991E-02 -0.33918316E-02  0.53750182E-02
  0.39974260E-02  0.35020461E-02 -0.80498757E-03
  0.59279128E-03 -0.50388052E-03 -0.27470235E-02
  0.12509201E-02 -0.32127088E-02 -0.88165080E-02
  0.14545245E-02 -0.13137007E-02  0.50192523E-02
  0.14439320E-01  0.38110944E-02  0.71849971E-02
  0.68790151E-02  0.72620908E-02  0.48037661E-02
 -0.14450401E-02  0.30866643E-02  0.11336939E-02
  0.66333732E-02  0.39616320E-02  0.91355735E-02
 -0.11151816E-02 -0.48524214E-03 -0.55030811E-02
 -0.50498360E-02  0.20966070E-02  0.26480914E-03
  0.20720821E-02  0.88656636E-02 -0.13341182E-01
  0.69934295E-02  0.19881563E-02 -0.75384213E-02
  0.55055876E-02 -0.54822767E-02 -0.11783453E-02
  0.16580572E-02 -0.51432061E-02 -0.34262726E-02
 -0.11338858E-02 -0.10635779E-01 -0.80549680E-03
  0.19357622E-02 -0.76976943E-02 -0.13442621E-03
 -0.28267664E-02  0.74638231E-03  0.26663222E-03
 -0.22704781E-02 -0.23481131E-02 -0.49086967E-02
 -0.81864862E-02 -0.50559325E-02 -0.12339669E-01
  0.31038391E-03 -0.14641234E-01 -0.11977460E-01
  0.28906420E-02  0.61580510E-02 -0.41261258E-02
 -0.18574130E-02 -0.23917070E-02  0.27430224E-02
  0.36280853E-02  0.66108941E-02 -0.54730457E-02
  0.95506874E-03  0.84674015E-02 -0.19672110E-02
 -0.28646478E-03 -0.66486245E-02 -0.32340422E-02
 -0.17669532E-02 -0.21824925E-03  0.34667039E-02
 -0.53079127E-02  0.40775634E-02  0.33126451E-02
  0.13557050E-02 -0.40900128E-02 -0.50296916E-02
  0.35711541E-02  0.21739850E-02 -0.94955825E-03
  0.47613985E-02 -0.14374804E-02  0.33167366E-02
 -0.33914794E-02  0.83229616E-02 -0.62017989E-02
  0.27707746E-02 -0.89200381E-02  0.68783292E-02
 -0.33535727E-02 -0.44516013E-02  0.96865217E-02
  0.17047216E-02 -0.11292920E-01  0.16501408E-02
 -0.53111180E-02 -0.96471196E-02 -0.56676711E-02
  0.30548176E-03  0.23768969E-02  0.25105892E-02
  0.45617061E-02  0.15053696E-02  0.37314376E-02
 -0.53543079E-02  0.60376915E-02  0.20693697E-02
  0.38105917E-02 -0.40734714E-02 -0.23019265E-02
  0.57018950E-02  0.14786862E-01 -0.51755216E-02
 -0.20310119E-02 -0.46311012E-02 -0.11850836E-02
  0.11843687E-02 -0.30001615E-02 -0.24010114E-02
  0.92842613E-02 -0.40091605E-02  0.28613517E-02
 -0.69013557E-02  0.49206129E-02  0.17509158E-02
 -0.37203019E-03 -0.89879108E-02 -0.13417558E-02
  0.39130151E-02 -0.57097340E-02  0.43865253E-02
  0.36134662E-02 -0.10798414E-01 -0.17913367E-02
 -0.35289091E-02 -0.24238235E-02 -0.14198361E-02
 -0.59616676E-03 -0.64044751E-02  0.85991986E-02
 -0.15100380E-02  0.27953775E-02 -0.28974155E-02
 -0.54270232E-02  0.67008542E-02  0.97597162E-03
  0.29904005E-02  0.54373062E-02  0.16191494E-02
  0.81557080E-03 -0.24090876E-02 -0.79805485E-02
 -0.78067165E-03  0.12370865E-02  0.52150103E-02
  0.89655998E-02 -0.47753040E-02  0.11738387E-01
  0.37501977E-02  0.69952119E-02 -0.47198367E-02
 -0.43948429E-02 -0.49437253E-02  0.76793480E-02
  0.41076593E-02 -0.59332361E-03 -0.31964649E-02
  0.59406927E-02  0.58009346E-02  0.15075412E-02
 -0.35850406E-02 -0.34989390E-02 -0.36761364E-02
  0.53832557E-02  0.10606843E-02  0.26416885E-02
 -0.17848902E-02 -0.22650806E-03  0.13407991E-02
 -0.29900787E-02  0.16949866E-02  0.10423205E-02
 -0.19124831E-02  0.40745978E-02 -0.22663841E-02
 -0.12700460E-01 -0.20131746E-02 -0.12045096E-02
  0.75069374E-02 -0.27358345E-02 -0.28152706E-02
  0.22437181E-02 -0.11055978E-02  0.28590761E-02
 -0.56861423E-02  0.24965300E-02  0.82627242E-02
 -0.37534610E-02  0.11751484E-01  0.58224141E-02
 -0.26034041E-02 -0.50134623E-02  0.48186018E-02
  0.56697170E-02 -0.63927646E-02  0.30740995E-02
 -0.45470368E-02  0.14648797E-03 -0.94722565E-02
 -0.41391456E-02  0.79992193E-02 -0.45033759E-02
  0.15864861E-02  0.18136094E-03  0.34090870E-02
  0.34141164E-02 -0.77934093E-03  0.25391744E-02
  0.24926077E-02  0.97179903E-02 -0.13062047E-01
  0.27082671E-02  0.60421159E-02 -0.21108011E-02
  0.34932858E-02 -0.21817317E-02  0.51087409E-02
 -0.26590840E-02  0.18296595E-02 -0.52260415E-02
  0.22521901E-03 -0.11932476E-02 -0.26675592E-02
 -0.84815617E-04 -0.35222877E-02  0.69856487E-02
  0.17492651E-01 -0.61082776E-03 -0.40539249E-02
  0.34306118E-02 -0.11943053E-01 -0.77060775E-03
 -0.58372253E-02 -0.90558300E-03 -0.10345537E-02
 -0.41084424E-02 -0.18851616E-02 -0.26104211E-02
 -0.15898590E-02 -0.98771396E-03 -0.76316292E-02
 -0.44090113E-02  0.13961957E-02  0.23706682E-02
 -0.83436949E-02 -0.21197564E-02  0.49705929E-02
  0.71151589E-02 -0.62762446E-02  0.10316297E-01
 -0.21763400E-02  0.48833662E-02 -0.38024527E-02
 -0.55026889E-02 -0.14728521E-02 -0.41262730E-02
 -0.55005513E-02  0.18557551E-03  0.48194525E-02
 -0.51309337E-02  0.55028129E-02  0.16005154E-02
  0.18578876E-02 -0.66853982E-02  0.90923638E-03
 -0.57116628E-02 -0.15473750E-02 -0.59040026E-02
  0.16829215E-02  0.19082999E-02  0.54897195E-02
 -0.52772463E-02  0.15187234E-02  0.60663805E-02
  0.28047155E-02 -0.23200871E-02 -0.40719135E-02
  0.29764421E-02 -0.66000644E-02 -0.52104456E-03
 -0.14760832E-02  0.84211139E-03  0.49260353E-02
 -0.91150929E-02  0.31264195E-02  0.22919757E-02
  0.29932066E-02  0.78353121E-02 -0.47016665E-02
 -0.32453931E-02 -0.21737792E-02 -0.31285153E-02
 -0.93839293E-02  0.88126593E-02  0.15863421E-02
  0.10070109E-02  0.90979630E-02 -0.72529226E-02
 -0.11258143E-01 -0.67807129E-02  0.38402159E-02
  0.57288484E-02 -0.11656625E-02 -0.95655391E-03
  0.20796533E-02 -0.20097667E-02 -0.14916814E-02
 -0.63689736E-04  0.87426419E-02 -0.11335676E-01
  0.22708451E-03  0.44104631E-02 -0.24386407E-02
 -0.21255455E-02  0.55130796E-02  0.34813755E-02
  0.21621835E-02  0.37011832E-02  0.33240830E-02
  0.11120120E-02 -0.66434435E-02  0.25820109E-02
 -0.41521385E-02  0.90205870E-02 -0.70791254E-02
 -0.10127305E-02 -0.10035701E-01  0.28263994E-02
  0.28518662E-02  0.94975369E-03 -0.12087989E-01
  0.74727867E-02 -0.32746545E-02  0.28351776E-02
  0.11738032E-02  0.22754429E-02  0.72502395E-02
  0.68404355E-02 -0.27847444E-02  0.30716848E-03
 -0.63419949E-02 -0.18023990E-02  0.65735844E-03
 -0.60193625E-02  0.62684245E-02 -0.10062535E-01
  0.48647911E-02  0.52851486E-02 -0.15372823E-02
  0.49790012E-03  0.23199724E-02  0.15712680E-02
  0.14410627E-02  0.67456421E-02  0.88772212E-02
  0.23093910E-02 -0.46553183E-02  0.61630542E-02
  0.23476939E-02 -0.26662320E-02  0.61798798E-02
  0.16124914E-02 -0.15734550E-02  0.52575538E-03
 -0.48541562E-03  0.75470981E-02  0.48386564E-02
 -0.81073213E-02 -0.80514658E-03 -0.90012601E-02
  0.16885470E-02 -0.51535940E-02  0.36834829E-02
  0.48044252E-05  0.84530825E-02  0.17605109E-02
  0.49644411E-04  0.32078241E-02  0.48839231E-02
  0.14211404E-01  0.64244326E-02 -0.40584282E-02
 -0.32185349E-02  0.68190757E-03  0.10488565E-01
  0.20274401E-02 -0.17937962E-02  0.85317301E-02
 -0.54986739E-02  0.25936595E-04 -0.14038152E-02
  0.47691611E-02  0.17160603E-02  0.15255526E-02
 -0.75642658E-03 -0.45609416E-02 -0.53934541E-02
  0.33976834E-03 -0.22216013E-02 -0.45907758E-02
  0.48813882E-02  0.41412596E-02 -0.30645963E-02
 -0.11908759E-01  0.15695611E-02 -0.19242742E-02
 -0.89453761E-02 -0.75973237E-02 -0.77116853E-02
  0.53112247E-02  0.57454124E-03 -0.61630820E-02
  0.26913250E-02  0.17763649E-02  0.13843537E-01
 -0.26904011E-02 -0.36709625E-03  0.27630058E-04
  0.47030277E-02  0.37357281E-02 -0.86394171E-02
  0.69825238E-04 -0.53944702E-03  0.37485411E-02
 -0.17348488E-02 -0.13668870E-01  0.31056686E-02
  0.12230216E-02  0.30529624E-02  0.51759639E-02
  0.63586515E-02  0.85326982E-02 -0.45405766E-02
  0.70228009E-02 -0.58896052E-02 -0.47283585E-02
  0.17348691E-03  0.32660136E-02 -0.46273431E-02
 -0.57368552E-02 -0.15954973E-02 -0.23448359E-02
 -0.30410689E-02  0.28898598E-02  0.63292637E-02
 -0.55201688E-03  0.34987411E-02  0.47102279E-02
 -0.68782209E-02  0.14394982E-02  0.77882892E-03
  0.49092368E-02 -0.69197974E-02  0.30227731E-02
 -0.13666472E-02  0.45527077E-02 -0.41503596E-02
  0.10816467E-02 -0.53890899E-02 -0.52115704E-03
  0.37382143E-02  0.57538820E-02 -0.13652278E-02
  0.16047123E-02  0.11552594E-02 -0.10992821E-02
  0.54274899E-02  0.12188486E-01  0.38255488E-02
  0.19125786E-02  0.28848717E-02  0.62550833E-02
  0.17241457E-02 -0.23460241E-02  0.31022379E-02
  0.96350701E-02 -0.71454504E-02  0.31972186E-02
  0.12401829E-02 -0.73515319E-02  0.37086641E-02
  0.10563896E-02 -0.85792533E-02  0.88782992E-04
  0.73323371E-02 -0.40657530E-02 -0.11846281E-01
  0.33402259E-02 -0.52101182E-02  0.13947216E-02
  0.25306250E-02 -0.42810631E-02  0.13998860E-03
  0.15830977E-02  0.14207396E-02  0.39950819E-02
  0.29189790E-02  0.20727277E-02 -0.33910360E-03
  0.14419246E-02 -0.42566989E-05 -0.28008492E-02
 -0.39010147E-02 -0.48280192E-02  0.57196999E-02
  0.36185058E-03  0.40736453E-03  0.66325961E-02
 -0.54280654E-02  0.10172934E-02  0.32090948E-02
 -0.51072844E-02  0.47263950E-02  0.56527965E-02
 -0.10332980E-02 -0.10224393E-02  0.12189452E-02
 -0.85943648E-03  0.53597417E-02  0.14683811E-02
 -0.12329957E-02  0.24554546E-02  0.18394291E-02
  0.17644320E-02 -0.33790088E-02 -0.22536410E-03
 -0.10379498E-02  0.50396892E-02 -0.23848719E-02
  0.50771118E-02  0.38915771E-02 -0.99615477E-03
  0.22785525E-02  0.25441868E-02 -0.20095655E-02
 -0.12155496E-02  0.26119863E-02 -0.70999761E-02
 -0.16480384E-02  0.25420058E-02 -0.19719549E-02
 -0.30659699E-02 -0.26040591E-02 -0.29800998E-02
 -0.79656474E-03  0.74096182E-03 -0.67125706E-03
  0.48232580E-02  0.24088628E-03 -0.31821242E-02
 -0.37082422E-02 -0.32836154E-02  0.20114919E-02
 -0.13213906E-02  0.93800075E-03 -0.27355656E-02
  0.18361092E-02 -0.46448820E-02 -0.46288358E-02
  0.33981077E-03 -0.66910591E-03  0.22457089E-02
  0.19424176E-02  0.38659258E-02  0.18445069E-02
 -0.32630602E-02 -0.74308180E-03  0.74490946E-02
  0.12769786E-02  0.15556941E-03  0.35906472E-02
  0.17950063E-03 -0.13467270E-02  0.72304543E-02
 -0.14300372E-02  0.18553354E-03  0.51927020E-02
  0.16082035E-02 -0.16575191E-02  0.32203102E-02
 -0.69075916E-03 -0.25317898E-02 -0.21642558E-02
  0.27982754E-02 -0.35773191E-02 -0.35220292E-03
  0.13517200E-03  0.22215612E-02 -0.16402583E-02
  0.26104832E-02  0.10675461E-02 -0.10181326E-02
  0.18104340E-02  0.12823449E-02  0.52928365E-02
  0.32907504E-02  0.65430830E-03 -0.60835524E-02
  0.32381829E-02  0.17216698E-02  0.43719700E-03
 -0.21079787E-02 -0.67227718E-02  0.34107560E-03
 -0.16011459E-02  0.39849153E-02 -0.27566244E-02
  0.21597291E-02  0.69953504E-04  0.28499319E-02
  0.31310784E-02 -0.91963746E-03  0.13946597E-02
 -0.72869890E-03 -0.28007138E-02  0.34555137E-02
  0.59036520E-02 -0.22052613E-02 -0.24076340E-02
  0.91976086E-03  0.25245731E-03 -0.16806647E-02
 -0.29980148E-02 -0.23148032E-02  0.43014277E-02