largec1CONTCARfar
1.0
       28.0032997131         0.0000000000         0.0000000000
        0.0000000000        16.1676998138         0.0000000000
        0.0000000000         0.0000000000        30.0000000000
    C    P    S   Cu   In
  172   28   84   14   14
Direct
     0.082230002         0.059379999         0.401849985
     0.582229972         0.559379995         0.401849985
     0.151700005         0.966340005         0.399459988
     0.651700020         0.466340005         0.399459988
     0.220369995         0.872219980         0.399470001
     0.720369995         0.372220010         0.399470001
     0.289649993         0.778330028         0.402379990
     0.789650023         0.278329998         0.402379990
     0.360689998         0.685660005         0.401809990
     0.860689998         0.185660005         0.401809990
     0.429199994         0.593630016         0.401849985
     0.929199994         0.093630001         0.401849985
     0.000060000         0.000060000         0.401730001
     0.500060022         0.500060022         0.401730001
     0.162489995         0.116130002         0.401809990
     0.662490010         0.616129994         0.401809990
     0.232620001         0.022690000         0.402209997
     0.732620001         0.522689998         0.402209997
     0.301910013         0.927990019         0.399500012
     0.801909983         0.427989990         0.399500012
     0.372339994         0.837580025         0.402209997
     0.872340024         0.337579995         0.402209997
     0.440979987         0.744369984         0.399459988
     0.940980017         0.244369999         0.399459988
     0.011580000         0.153369993         0.402150005
     0.511579990         0.653370023         0.402150005
     0.244350001         0.176359996         0.402379990
     0.744350016         0.676360011         0.402379990
     0.313039988         0.083130002         0.399500012
     0.813040018         0.583130002         0.399500012
     0.385039985         0.988860011         0.399500012
     0.885039985         0.488860011         0.399500012
     0.453709990         0.894439995         0.399470001
     0.953710020         0.394439995         0.399470001
     0.022919999         0.301829994         0.402060002
     0.522920012         0.801829994         0.402060002
     0.093740001         0.207810000         0.401939988
     0.593739986         0.707809985         0.401939988
     0.325929999         0.233329996         0.399470001
     0.825929999         0.733330011         0.399470001
     0.395040005         0.139719993         0.402209997
     0.895039976         0.639720023         0.402209997
     0.466010004         0.045299999         0.402379990
     0.966009974         0.545300007         0.402379990
     0.034389999         0.454039991         0.402060002
     0.534389973         0.954039991         0.402060002
     0.104309998         0.361030012         0.401989996
     0.604309976         0.861029983         0.401989996
     0.174079999         0.266700000         0.399500012
     0.674080014         0.766700029         0.399500012
     0.407319993         0.289279997         0.399459988
     0.907320023         0.789279997         0.399459988
     0.476819992         0.198210001         0.401809990
     0.976819992         0.698210001         0.401809990
     0.046310000         0.605539978         0.399500012
     0.546310008         0.105540000         0.399500012
     0.116570003         0.515219986         0.402359992
     0.616569996         0.015220000         0.402359992
     0.184100002         0.417239994         0.402359992
     0.684099972         0.917240024         0.402359992
     0.255780011         0.324559987         0.402060002
     0.755779982         0.824559987         0.402060002
     0.488579988         0.346980006         0.401849985
     0.988579988         0.846979976         0.401849985
     0.057030000         0.755490005         0.401939988
     0.557030022         0.255490005         0.401939988
     0.128360003         0.663020015         0.401989996
     0.628359973         0.163020000         0.401989996
     0.199330002         0.567529976         0.402359992
     0.699329972         0.067529999         0.402359992
     0.267329991         0.475950003         0.401989996
     0.767329991         0.975950003         0.401989996
     0.337630004         0.383469999         0.402060002
     0.837629974         0.883469999         0.402060002
     0.070890002         0.905939996         0.402150005
     0.570890009         0.405939996         0.402150005
     0.139449999         0.814700007         0.402060002
     0.639450014         0.314700007         0.402060002
     0.209830001         0.721390009         0.402060002
     0.709829986         0.221389994         0.402060002
     0.279610008         0.627759993         0.399500012
     0.779609978         0.127759993         0.399500012
     0.349229991         0.536700010         0.401939988
     0.849229991         0.036699999         0.401939988
     0.417530000         0.440690011         0.402150005
     0.917530000         0.940689981         0.402150005
     0.100709997         0.977289975         0.402200013
     0.600709975         0.477290004         0.402200013
     0.170849994         0.883880019         0.401820004
     0.670849979         0.383879989         0.401820004
     0.239600003         0.792190015         0.401939988
     0.739600003         0.292189986         0.401939988
     0.310409993         0.698159993         0.402040005
     0.810410023         0.198159993         0.402040005
     0.181639999         0.033650000         0.399459988
     0.681640029         0.533649981         0.399459988
     0.251130015         0.940590024         0.401899993
     0.751129985         0.440589994         0.401899993
     0.321749985         0.846629977         0.402119994
     0.821749985         0.346630007         0.402119994
     0.392349988         0.755630016         0.399459988
     0.892350018         0.255629987         0.399459988
     0.460999995         0.662419975         0.402200013
     0.961000025         0.162420005         0.402200013
     0.031429999         0.071999997         0.399500012
     0.531430006         0.572000027         0.399500012
     0.193880007         0.185299993         0.402040005
     0.693880022         0.685310006         0.402040005
     0.262439996         0.094059996         0.402119994
     0.762440026         0.594060004         0.402119994
     0.333310008         0.999890029         0.401719987
     0.833310008         0.499890000         0.401719987
     0.404139996         0.906400025         0.401899993
     0.904139996         0.406399995         0.401899993
     0.472640008         0.814329982         0.401820004
     0.972639978         0.314330012         0.401820004
     0.043690000         0.221660003         0.402359992
     0.543690026         0.721660018         0.402359992
     0.112970002         0.127780005         0.399470001
     0.612969995         0.627780020         0.399470001
     0.276300013         0.244499996         0.401939988
     0.776300013         0.744499981         0.401939988
     0.344729990         0.153009996         0.401899993
     0.844730020         0.653010011         0.401899993
     0.415809989         0.059310000         0.402119994
     0.915809989         0.559310019         0.402119994
     0.484100014         0.963299990         0.401939988
     0.984099984         0.463299990         0.401939988
     0.053720001         0.372229993         0.399489999
     0.553719997         0.872229993         0.399489999
     0.123510003         0.278600007         0.402079999
     0.623510003         0.778599977         0.402079999
     0.356519997         0.301789999         0.401820004
     0.856519997         0.801789999         0.401820004
     0.426010013         0.210720003         0.399459988
     0.926010013         0.710720003         0.399459988
     0.495709985         0.116530001         0.402040005
     0.995710015         0.616530001         0.402040005
     0.066000000         0.524060011         0.401989996
     0.565999985         0.024060000         0.401989996
     0.134010002         0.432460010         0.402359992
     0.634010017         0.932460010         0.402359992
     0.204970002         0.336970001         0.401980013
     0.704970002         0.836969972         0.401980013
     0.438290000         0.360289991         0.402200013
     0.938290000         0.860289991         0.402200013
     0.007410000         0.766659975         0.399470001
     0.507409990         0.266660005         0.399470001
     0.077550001         0.675440013         0.402079999
     0.577549994         0.175439999         0.402079999
     0.149230003         0.582750022         0.402359992
     0.649230003         0.082750000         0.402359992
     0.216759995         0.484780014         0.402359992
     0.716759980         0.984780014         0.402359992
     0.287019998         0.394470006         0.399489999
     0.787020028         0.894469976         0.399489999
     0.020290000         0.916869998         0.399500012
     0.520290017         0.416869998         0.399500012
     0.088990003         0.823639989         0.402359992
     0.588989973         0.323639989         0.402359992
     0.159260005         0.733299971         0.399489999
     0.659259975         0.233300000         0.399489999
     0.229029998         0.638960004         0.401980013
     0.729030013         0.138960004         0.401980013
     0.298940003         0.545949996         0.402079999
     0.798940003         0.045949999         0.402079999
     0.367330015         0.454699993         0.402359992
     0.867330015         0.954699993         0.402359992
     0.379629999         0.605560005         0.399470001
     0.879630029         0.105559997         0.399470001
     0.448289990         0.511139989         0.399500012
     0.948289990         0.011140000         0.399500012
     0.283679992         0.428270012         0.194490001
     0.783680022         0.928269982         0.194490001
     0.144040003         0.711690009         0.194690004
     0.644039989         0.211689994         0.194690004
     0.072329998         0.360390007         0.194519997
     0.572329998         0.860390007         0.194519997
     0.428180009         0.139660001         0.194830000
     0.928179979         0.639660001         0.194830000
     0.355740011         0.787880003         0.194830000
     0.855740011         0.287880003         0.194830000
     0.216079995         0.072449997         0.194830000
     0.716080010         0.572449982         0.194830000
     0.000010000         0.999989986         0.194959998
     0.500010014         0.499989986         0.194959998
     0.000010000         0.999989986         0.270619988
     0.500010014         0.499989986         0.270619988
     0.283470005         0.427830011         0.270269990
     0.783469975         0.927829981         0.270269990
     0.144409999         0.711380005         0.270339996
     0.644410014         0.211380005         0.270339996
     0.072200000         0.360940009         0.270289987
     0.572200000         0.860939980         0.270289987
     0.428669989         0.141279995         0.270179987
     0.928669989         0.641279995         0.270179987
     0.356330007         0.786350012         0.270159990
     0.856329978         0.286350012         0.270159990
     0.215039998         0.072329998         0.270179987
     0.715040028         0.572329998         0.270179987
     0.267780006         0.310090005         0.174940005
     0.767780006         0.810090005         0.174940005
     0.125689998         0.595300019         0.172830001
     0.625689983         0.095299996         0.172830001
     0.482450008         0.382259995         0.175249994
     0.982450008         0.882260025         0.175249994
     0.054230001         0.242459998         0.174999997
     0.554229975         0.742460012         0.174999997
     0.410890013         0.021880001         0.175319999
     0.910889983         0.521879971         0.175319999
     0.338479996         0.670350015         0.175029993
     0.838479996         0.170350000         0.175029993
     0.198630005         0.954509974         0.175080001
     0.698629975         0.454510003         0.175080001
     0.234280005         0.512510002         0.171189994
     0.734279990         0.012510000         0.171189994
     0.094099998         0.797519982         0.174970001
     0.594099998         0.297520012         0.174970001
     0.021150000         0.443280011         0.174919993
     0.521149993         0.943279982         0.174919993
     0.377939999         0.224800006         0.175080001
     0.877939999         0.724799991         0.175080001
     0.449930012         0.585200012         0.175239995
     0.949930012         0.085199997         0.175239995
     0.305500001         0.872720003         0.175329998
     0.805499971         0.372720003         0.175329998
     0.165950000         0.157089993         0.175029993
     0.665950000         0.657090008         0.175029993
     0.351709992         0.460099995         0.174950004
     0.851710021         0.960099995         0.174950004
     0.211040005         0.746490002         0.174909994
     0.711040020         0.246490002         0.174909994
     0.139129996         0.392329991         0.171220005
     0.639129996         0.892329991         0.171220005
     0.495539993         0.172549993         0.175029993
     0.995540023         0.672550023         0.175029993
     0.423440009         0.820659995         0.175060004
     0.923439980         0.320659995         0.175060004
     0.283620000         0.105370000         0.175319999
     0.783620000         0.605369985         0.175319999
     0.067649998         0.032520000         0.175249994
     0.567650020         0.532519996         0.175249994
     0.333359987         0.344110012         0.288529992
     0.833360016         0.844110012         0.288529992
     0.193800002         0.626720011         0.288249999
     0.693799973         0.126719996         0.288249999
     0.049810000         0.915279984         0.288320005
     0.549809992         0.415280014         0.288320005
     0.122610003         0.275880009         0.284029990
     0.622609973         0.775879979         0.284029990
     0.477400005         0.055480000         0.288650006
     0.977400005         0.555480003         0.288650006
     0.405479997         0.696489990         0.284009993
     0.905480027         0.196490005         0.284009993
     0.261590004         0.983669996         0.289029986
     0.761590004         0.483669996         0.289029986
     0.300779998         0.545949996         0.284020007
     0.800779998         0.045949999         0.284020007
     0.161300004         0.828090012         0.288590014
     0.661300004         0.328090012         0.288590014
     0.089800000         0.477310002         0.288230002
     0.589800000         0.977310002         0.288230002
     0.449010015         0.259939998         0.284020007
     0.949010015         0.759940028         0.284020007
     0.017470000         0.117050000         0.288320005
     0.517470002         0.617049992         0.288320005
     0.377400011         0.900510013         0.289009988
     0.877399981         0.400510013         0.289009988
     0.233579993         0.188319996         0.288659990
     0.733579993         0.688319981         0.288659990
     0.432760000         0.467640013         0.288320005
     0.932760000         0.967639983         0.288320005
     0.216470003         0.395990014         0.288219988
     0.716470003         0.895990014         0.288219988
     0.076669998         0.678219974         0.284079999
     0.576669991         0.178230003         0.284079999
     0.005400000         0.327879995         0.288529992
     0.505400002         0.827880025         0.288529992
     0.361059994         0.115800001         0.289029986
     0.861060023         0.615800023         0.289029986
     0.289070010         0.756160021         0.288650006
     0.789070010         0.256159991         0.288650006
     0.145539999         0.043520000         0.284029990
     0.645539999         0.543519974         0.284029990
     0.260329992         0.644219995         0.184320003
     0.760330021         0.144219995         0.184320003
     0.191949993         0.287389994         0.184330001
     0.691950023         0.787389994         0.184330001
     0.047680002         0.568409979         0.184420004
     0.547680020         0.068410002         0.184420004
     0.403730005         0.355560005         0.184990004
     0.903729975         0.855560005         0.184990004
     0.475919992         0.716620028         0.184990004
     0.975920022         0.216619998         0.184990004
     0.333339989         0.999989986         0.185039997
     0.833339989         0.499989986         0.185039997
     0.120360002         0.927820027         0.184990004
     0.620360017         0.427819997         0.184990004
     0.379979998         0.567629993         0.239140004
     0.879980028         0.067630000         0.239140004
     0.166759998         0.499960005         0.238930002
     0.666760027         0.999960005         0.238930002
     0.026210001         0.786019981         0.239219993
     0.526210010         0.286020011         0.239219993
     0.093889996         0.146210000         0.239170000
     0.593890011         0.646210015         0.239170000
     0.452939987         0.927550018         0.240580007
     0.952939987         0.427549988         0.240580007
     0.309760004         0.215509996         0.240580007
     0.809759974         0.715510011         0.240580007
     0.237350002         0.856850028         0.240630001
     0.737349987         0.356849998         0.240630001
