 C                                      
   1.00000000000000     
    14.0016529999999992    8.0838260000000002    0.0000000000000000
     0.0000000000000000   16.1677000000000000    0.0000000000000000
     0.0000000000000000    0.0000000000000000   30.0000000000000000
   C 
    86
Direct
  0.0255201605686040  0.1372828968433950  0.3839868025414930
  0.1854413493189355  0.1180267598700055  0.3898540078993022
  0.3496882102465975  0.0944510555856795  0.3841912396974578
  0.5114365666131775  0.0680193848697215  0.3870494231303852
  0.6764246232767590  0.0458211423384824  0.3871258433449825
  0.8388192875224476  0.0223886599140215  0.3841038724883106
  0.9998937288929213  0.0000542060267890  0.3864280000000022
  0.0458269289819739  0.2777398288640356  0.3871365053767732
  0.2099341104434984  0.2554970188791899  0.3869630264577211
  0.3724994190625068  0.2331231817799946  0.3842228178676308
  0.5346180067453830  0.2098192838695283  0.3870418653713585
  0.6966508604217267  0.1853705204668685  0.3898452505292838
  0.8626170495258734  0.1630003653084344  0.3840098588400878
  0.0692255686162042  0.4197816074830172  0.3870944509450922
  0.2333085246295852  0.3944443239335200  0.3841396865764963
  0.3943965716958573  0.3724380671926326  0.3842740463332390
  0.5558218901676284  0.3502156375157881  0.3851652511704486
  0.7210756326361079  0.3244146946443394  0.3874448990203092
  0.8858768682460152  0.3011811950435828  0.3869317849201650
  0.0944718972081873  0.5558592937664528  0.3841755893232275
  0.2553080424564271  0.5347014571411108  0.3870626743175976
  0.4171038086312251  0.5113512108104885  0.3898613060206770
  0.5827187772569147  0.4888912956057183  0.3899765224350276
  0.7443570711974985  0.4654059693237969  0.3870967504313541
  0.9073774879784864  0.4408535906295228  0.3898081654457570
  0.1180292199177799  0.6965695242689094  0.3898513940326396
  0.2776676830163183  0.6764960026935967  0.3871300162320281
  0.4408361652453436  0.6517609263083344  0.3898090574120445
  0.6052785227229975  0.6279622804886458  0.3840758647177296
  0.7668139933797207  0.6054516037701347  0.3840927525656213
  0.9315913832390308  0.5803888234155465  0.3875833313686101
  0.1388768160184384  0.8387821657516881  0.3841036619040992
  0.3010671709310202  0.8130620531697872  0.3869311594073892
  0.4642834122481645  0.7910416700466598  0.3871799570118526
  0.6275127421521347  0.7668288288089471  0.3840850127383746
  0.7902580245220960  0.7443027097282169  0.3871247655841401
  0.9544598330671406  0.7210407124505593  0.3874405954666642
  0.1615683305542177  0.9775504296078665  0.3841686643970164
  0.3244326877806500  0.9545086419878004  0.3874458709775013
  0.4879715948305332  0.9315442928552571  0.3875298435552352
  0.6518063444929822  0.9073336349827557  0.3898018855769863
  0.8130481050019895  0.8858227328319686  0.3869318359594374
  0.9776229196010604  0.8608456800900868  0.3841706949898125
  0.1237313036059859  0.0775850192550891  0.3869271411645130
  0.2875192490615106  0.0555549150135803  0.3870369507016136
  0.4475308047543152  0.0319712746298961  0.3869353407114460
  0.6124953960127328  0.0084981232687724  0.3874838061268164
  0.1479178275940001  0.2152935562323535  0.3898557923042603
  0.3110208393669041  0.1945144740370637  0.3840800307975485
  0.4749956873311731  0.1686357434077337  0.3869112380865616
  0.6368147835762983  0.1479086901013105  0.3898568443620434
  0.7996304225574704  0.1235839302166184  0.3868945962539598
  0.9614475970294905  0.1000246951081607  0.3840322750875558
  0.0090166748083931  0.3787963074181775  0.3878290326394804
  0.1716730760524854  0.3558026765321429  0.3850998219053423
  0.3336122014846339  0.3332531707414432  0.3863503378460749
  0.4944695654181288  0.3110669630390603  0.3841194609815730
  0.6569109516171991  0.2875999698888734  0.3870766502333538
  0.8224784119453687  0.2643970442340020  0.3869782920915128
  0.9838709458110060  0.2386771384928750  0.3842250526864674
  0.0321896915669058  0.5202731681392052  0.3869537146340676
  0.1945211321798155  0.4944775555990404  0.3840633660844688
  0.3555477923720929  0.4749716143767770  0.3871379567039952
  0.5185507853024802  0.4516361341133290  0.3898643885944040
  0.6817226149628510  0.4259082500325277  0.3898430014376117
  0.8454407861791609  0.4016905490089542  0.3874006798138652
  0.0555455227507977  0.6569280702172478  0.3870356965324859
  0.2152687340796504  0.6367974431824450  0.3898583856386253
  0.3782430353113426  0.6125689764102233  0.3879391332738251
  0.5433127520008441  0.5894912453372640  0.3873748096466727
  0.7055396985301741  0.5665658115864716  0.3841325030091056
  0.8678897697026855  0.5430740666964766  0.3870775587643891
  0.0779334647180860  0.7987097953598052  0.3869156281383610
  0.2388159672521226  0.7774890381570643  0.3842005193438780
  0.4014624581078934  0.7529352968056244  0.3873913043312243
  0.5633231672871304  0.7295054023216423  0.3839877664624183
  0.7278480874431779  0.7055717693112555  0.3841280295992675
  0.8924600158377487  0.6815501654539062  0.3898142670859812
  0.1000419612765171  0.9389082849369998  0.3840510638452628
  0.2640239282053400  0.9135405249244783  0.3870815449088951
  0.4259193762014775  0.8925318358495318  0.3898162313955851
  0.5890700269404263  0.8678464559978636  0.3870803511996002
  0.7529205113635840  0.8453658520145240  0.3874036933772018
  0.9135508458541182  0.8223947944860228  0.3870766756099968
  0.7774643222484698  0.9837058296098320  0.3842210976257974
  0.9389100135172441  0.9610362218541013  0.3840510586281383
 
  0.00000000E+00  0.00000000E+00  0.00000000E+00
  0.00000000E+00  0.00000000E+00  0.00000000E+00
  0.00000000E+00  0.00000000E+00  0.00000000E+00
  0.00000000E+00  0.00000000E+00  0.00000000E+00
  0.00000000E+00  0.00000000E+00  0.00000000E+00
  0.00000000E+00  0.00000000E+00  0.00000000E+00
  0.00000000E+00  0.00000000E+00  0.00000000E+00
  0.00000000E+00  0.00000000E+00  0.00000000E+00
  0.00000000E+00  0.00000000E+00  0.00000000E+00
  0.00000000E+00  0.00000000E+00  0.00000000E+00
  0.00000000E+00  0.00000000E+00  0.00000000E+00
  0.00000000E+00  0.00000000E+00  0.00000000E+00
  0.00000000E+00  0.00000000E+00  0.00000000E+00
  0.00000000E+00  0.00000000E+00  0.00000000E+00
  0.00000000E+00  0.00000000E+00  0.00000000E+00
  0.00000000E+00  0.00000000E+00  0.00000000E+00
  0.00000000E+00  0.00000000E+00  0.00000000E+00
  0.00000000E+00  0.00000000E+00  0.00000000E+00
  0.00000000E+00  0.00000000E+00  0.00000000E+00
  0.00000000E+00  0.00000000E+00  0.00000000E+00
  0.00000000E+00  0.00000000E+00  0.00000000E+00
  0.00000000E+00  0.00000000E+00  0.00000000E+00
  0.00000000E+00  0.00000000E+00  0.00000000E+00
  0.00000000E+00  0.00000000E+00  0.00000000E+00
  0.00000000E+00  0.00000000E+00  0.00000000E+00
  0.00000000E+00  0.00000000E+00  0.00000000E+00
  0.00000000E+00  0.00000000E+00  0.00000000E+00
  0.00000000E+00  0.00000000E+00  0.00000000E+00
  0.00000000E+00  0.00000000E+00  0.00000000E+00
  0.00000000E+00  0.00000000E+00  0.00000000E+00
  0.00000000E+00  0.00000000E+00  0.00000000E+00
  0.00000000E+00  0.00000000E+00  0.00000000E+00
  0.00000000E+00  0.00000000E+00  0.00000000E+00
  0.00000000E+00  0.00000000E+00  0.00000000E+00
  0.00000000E+00  0.00000000E+00  0.00000000E+00
  0.00000000E+00  0.00000000E+00  0.00000000E+00
  0.00000000E+00  0.00000000E+00  0.00000000E+00
  0.00000000E+00  0.00000000E+00  0.00000000E+00
  0.00000000E+00  0.00000000E+00  0.00000000E+00
  0.00000000E+00  0.00000000E+00  0.00000000E+00
  0.00000000E+00  0.00000000E+00  0.00000000E+00
  0.00000000E+00  0.00000000E+00  0.00000000E+00
  0.00000000E+00  0.00000000E+00  0.00000000E+00
  0.00000000E+00  0.00000000E+00  0.00000000E+00
  0.00000000E+00  0.00000000E+00  0.00000000E+00
  0.00000000E+00  0.00000000E+00  0.00000000E+00
  0.00000000E+00  0.00000000E+00  0.00000000E+00
  0.00000000E+00  0.00000000E+00  0.00000000E+00
  0.00000000E+00  0.00000000E+00  0.00000000E+00
  0.00000000E+00  0.00000000E+00  0.00000000E+00
  0.00000000E+00  0.00000000E+00  0.00000000E+00
  0.00000000E+00  0.00000000E+00  0.00000000E+00
  0.00000000E+00  0.00000000E+00  0.00000000E+00
  0.00000000E+00  0.00000000E+00  0.00000000E+00
  0.00000000E+00  0.00000000E+00  0.00000000E+00
  0.00000000E+00  0.00000000E+00  0.00000000E+00
  0.00000000E+00  0.00000000E+00  0.00000000E+00
  0.00000000E+00  0.00000000E+00  0.00000000E+00
  0.00000000E+00  0.00000000E+00  0.00000000E+00
  0.00000000E+00  0.00000000E+00  0.00000000E+00
  0.00000000E+00  0.00000000E+00  0.00000000E+00
  0.00000000E+00  0.00000000E+00  0.00000000E+00
  0.00000000E+00  0.00000000E+00  0.00000000E+00
  0.00000000E+00  0.00000000E+00  0.00000000E+00
  0.00000000E+00  0.00000000E+00  0.00000000E+00
  0.00000000E+00  0.00000000E+00  0.00000000E+00
  0.00000000E+00  0.00000000E+00  0.00000000E+00
  0.00000000E+00  0.00000000E+00  0.00000000E+00
  0.00000000E+00  0.00000000E+00  0.00000000E+00
  0.00000000E+00  0.00000000E+00  0.00000000E+00
  0.00000000E+00  0.00000000E+00  0.00000000E+00
  0.00000000E+00  0.00000000E+00  0.00000000E+00
  0.00000000E+00  0.00000000E+00  0.00000000E+00
  0.00000000E+00  0.00000000E+00  0.00000000E+00
  0.00000000E+00  0.00000000E+00  0.00000000E+00
  0.00000000E+00  0.00000000E+00  0.00000000E+00
  0.00000000E+00  0.00000000E+00  0.00000000E+00
  0.00000000E+00  0.00000000E+00  0.00000000E+00
  0.00000000E+00  0.00000000E+00  0.00000000E+00
  0.00000000E+00  0.00000000E+00  0.00000000E+00
  0.00000000E+00  0.00000000E+00  0.00000000E+00
  0.00000000E+00  0.00000000E+00  0.00000000E+00
  0.00000000E+00  0.00000000E+00  0.00000000E+00
  0.00000000E+00  0.00000000E+00  0.00000000E+00
  0.00000000E+00  0.00000000E+00  0.00000000E+00
  0.00000000E+00  0.00000000E+00  0.00000000E+00
