largec3                                 
   1.00000000000000     
    28.0032999999999994    0.0000000000000000    0.0000000000000000
     0.0000000000000000   16.1677000000000000    0.0000000000000000
     0.0000000000000000    0.0000000000000000   30.0000000000000000
   C    P    S    Cu   In
   172    28    84    14    14
Selective dynamics
Direct
  0.7895079714462854 -0.1336147674088325  0.3942858706770973   T   T   T
  1.2896259396822183  0.3644500430023579  0.4007297070591232   T   T   T
  0.8588386484258628  0.7741390078867350  0.3921900704467159   T   T   T
  1.3595844843480378  0.2710565306465277  0.4035189520583292   T   T   T
  0.9289656753025106  0.6806753883813719  0.3950739958845915   T   T   T
  1.4297282635723900  0.1783172098227902  0.4044070412082414   T   T   T
  0.9994698620827273  0.5839322181966504  0.4003294628101571   T   T   T
  1.4982179616615146  0.0854046295056177  0.4094606974314189   T   T   T
  1.0699875168957103  0.4936558760714337  0.4030372709033931   T   T   T
  1.5674647794612915 -0.0061832286794165  0.4095621663053336   T   T   T
  1.1387147394925534  0.4002107431487345  0.3996433366365149   T   T   T
  1.6378710430011829 -0.0996763671865963  0.4088066846499644   T   T   T
  1.2093001160179644  0.3075091735854686  0.3987168869245145   T   T   T
  1.7086385104910977 -0.1907989088559815  0.3989401330183084   T   T   T
  0.8694259186443674 -0.0762174645515173  0.3958779276168627   T   T   T
  1.3688393212896781  0.4223564961762426  0.4014698230481873   T   T   T
  0.9411142154866018 -0.1657702865000110  0.3976601531498921   T   T   T
  1.4408610294885729  0.3310617498271842  0.4061021710832950   T   T   T
  1.0115590987912739  0.7383850598044183  0.3985600285403194   T   T   T
  1.5104134257541966  0.2362176987858400  0.4088332057014727   T   T   T
  1.0800096935659669  0.6459262435856831  0.4039323841660486   T   T   T
  1.5812854434021741  0.1414384672224996  0.4051414387448083   T   T   T
  1.1491775501652759  0.5515143490508483  0.4022996811927304   T   T   T
  1.6504653646258194  0.0483117104877764  0.4041182841388866   T   T   T
  0.7198274251948196 -0.0420194819251575  0.3989345718704667   T   T   T
  1.2193308316385685  0.4576553608499830  0.3970139726946072   T   T   T
  0.9516717859108659 -0.0195954241610375  0.4013863500045244   T   T   T
  1.4533752376418754  0.4830367019703802  0.4064245286768980   T   T   T
  1.0217905438036567 -0.1111813397724485  0.3972271527993733   T   T   T
  1.5209253935423570  0.3880111185111032  0.4077295925401678   T   T   T
  1.0940736329425025  0.7963990278202144  0.4016404442581676   T   T   T
  1.5922344295278981  0.2982781665136808  0.4069902339665661   T   T   T
  1.1625635096636444  0.7047961438057816  0.4039213839127067   T   T   T
  1.6616285567199383  0.2030578936106961  0.4054793732746934   T   T   T
  0.7295299287776352  0.1092332874198553  0.3996569969660023   T   T   T
  1.2293726358165500  0.6097399936920933  0.4055374818947191   T   T   T
  0.8001152248333516  0.0179438862900586  0.3985931684470569   T   T   T
  1.2993322288800062  0.5160918975606739  0.4009671307636734   T   T   T
  1.0328648600326154  0.0392987884531162  0.4004147973765453   T   T   T
  1.5350826885216522  0.5384377139721999  0.4094282254613807   T   T   T
  1.1044939313440316 -0.0527153123683476  0.4010639171348288   T   T   T
  1.6048941486164077  0.4466675829702001  0.4082294538896596   T   T   T
  1.1735080592969791 -0.1455978249970705  0.4007356515343543   T   T   T
  1.6746340070315808  0.3531034127809771  0.4014806134192133   T   T   T
  0.7437711016317892  0.2632467196993805  0.4038316045852547   T   T   T
  1.2422167663747714  0.7601760991907928  0.4023575324541895   T   T   T
  0.8105248278812521  0.1669432014215992  0.3971835658720373   T   T   T
  1.3120216162409182  0.6632903177901585  0.4054172294299248   T   T   T
  0.8813140077056031  0.0710144204649028  0.3998085799930001   T   T   T
  1.3833490368186263  0.5757203701228337  0.4037996841591068   T   T   T
  1.1154337500278175  0.0976718484884589  0.4002176544172023   T   T   T
  1.6171351946613783  0.5975432636601175  0.4052312329182680   T   T   T
  1.1859697948661396  0.0073285052909748  0.4013453290895155   T   T   T
  1.6861208496677373  0.5051429429216621  0.3991041024462331   T   T   T
  0.7543309154040827  0.4117358961434702  0.3977061408350511   T   T   T
  1.2550941664814927 -0.0908604798125319  0.4042325379156005   T   T   T
  0.8231447063657904  0.3177909167286900  0.3971107119378731   T   T   T
  1.3242421906404236 -0.1834160944674964  0.4049874803991363   T   T   T
  0.8923324189682458  0.2265010890571797  0.3992099154312843   T   T   T
  1.3949630511777227  0.7235300752708744  0.4055509563248519   T   T   T
  0.9622950264929716  0.1313702662511310  0.3998342760929924   T   T   T
  1.4668625695826518  0.6326026417708385  0.4091855643289313   T   T   T
  1.1994111412245370  0.1564943575722985  0.4023702832687962   T   T   T
  1.6978678581393205  0.6569201227932626  0.4028381550085627   T   T   T
  0.7671672439447301  0.5662212071711101  0.3952298471036610   T   T   T
  1.2672625538383018  0.0613030597118909  0.4039718430902081   T   T   T
  0.8357888736731549  0.4703486514456383  0.4014162196406719   T   T   T
  1.3366752767703942 -0.0317606499615989  0.4087886033156095   T   T   T
  0.9066245558107046  0.3767164240346082  0.4015337764194243   T   T   T
  1.4034004245520515 -0.1241487629591495  0.4102389344701706   T   T   T
  0.9742843483939861  0.2830475107507398  0.4017971303225740   T   T   T
  1.4750105502290378  0.7814000793171545  0.4108211416171775   T   T   T
  1.0434682424058883  0.1905059001259024  0.3968474162989870   T   T   T
  1.5455132310531174  0.6905783991415875  0.4083294711215892   T   T   T
  0.7788804914708338  0.7158350144840339  0.3950161927363761   T   T   T
  1.2795544946173654  0.2152372543336150  0.3999953093542450   T   T   T
  0.8484946129638986  0.6212419315223041  0.4002048144896504   T   T   T
  1.3486192544411844  0.1208898476360097  0.4073776244023637   T   T   T
  0.9181716465913723  0.5268168135218882  0.4020406436555382   T   T   T
  1.4173486705718734  0.0261678700192219  0.4095836567885133   T   T   T
  0.9880176614252307  0.4329195820218951  0.4003509968793548   T   T   T
  1.4849824782253802 -0.0672571965069816  0.4122459673249984   T   T   T
  1.0573357316073897  0.3428035757111981  0.4003286198774365   T   T   T
  1.5548584882766485 -0.1577036158148470  0.4080065061428237   T   T   T
  1.1262928475479064  0.2467960232865319  0.3987440604167958   T   T   T
  1.6278669662062486  0.7477398865853794  0.4020536026930011   T   T   T
  0.8094111973997883  0.7873648236278141  0.3920340077454006   T   T   T
  1.3092804720176072  0.2870349934837358  0.4005089213176573   T   T   T
  0.8785953313207198  0.6921751257891458  0.3964680254983187   T   T   T
  1.3785362282446898  0.1910303391660873  0.4021962195454272   T   T   T
  0.9501693602548507  0.5956949890315810  0.3994592003952956   T   T   T
  1.4484579602913941  0.0956993252721527  0.4104548357435200   T   T   T
  1.0202358102859459  0.5025673767789594  0.4015464384327267   T   T   T
  1.5173260219138180  0.0027133055722385  0.4122636936879503   T   T   T
  0.8900077298567787 -0.1553775121023997  0.3955034879189842   T   T   T
  1.3897969509928845  0.3436090057172652  0.4027895982763582   T   T   T
  0.9607541599830856  0.7522281692694615  0.3977547815964788   T   T   T
  1.4598895373848371  0.2484968465071007  0.4065460512268755   T   T   T
  1.0297662419566795  0.6553763865795023  0.4009678213129058   T   T   T
  1.5298202359930992  0.1522986426858949  0.4070791838211325   T   T   T
  1.0992229623638008  0.5633746274492751  0.4033013377960165   T   T   T
  1.5987211681703086  0.0609234869661285  0.4068577155181137   T   T   T
  1.1681392987379842  0.4673618404299333  0.3990821848329441   T   T   T
  1.6696454688709701 -0.0316192065207290  0.4043473212544380   T   T   T
  0.7386471137704304 -0.1242991671465157  0.3932958354125312   T   T   T
  1.2400766989494212  0.3773907258224623  0.3984299924898013   T   T   T
  0.9017266611556635 -0.0089004492694182  0.4003282489909628   T   T   T
  1.4015077723435594  0.4939545537102438  0.4043841319694274   T   T   T
  0.9713246639978352 -0.0981245656741628  0.3963418378468166   T   T   T
  1.4708830721685957  0.4017186890084040  0.4077498638622568   T   T   T
  1.0420848513658778 -0.1930538707379106  0.3974624187940555   T   T   T
  1.5419687862821263  0.3099267065516743  0.4055194964518103   T   T   T
  1.1118034675052373  0.7178716543716125  0.4054890882291105   T   T   T
  1.6105732277937412  0.2146296525438142  0.4052897034293532   T   T   T
  1.1799980622227797  0.6227515613840197  0.4037843317810435   T   T   T
  1.6795367507828207  0.1204499401444520  0.4031693405776268   T   T   T
  0.7503446155455246  0.0287428468562545  0.3963136796780748   T   T   T
  1.2487366172223398  0.5271921134978665  0.4015820043139275   T   T   T
  0.8200292648613891 -0.0611730105295185  0.3958238374488713   T   T   T
  1.3191350577088452  0.4334381488032509  0.3989784514142706   T   T   T
  0.9826034178697080  0.0526815130667075  0.4002656148371979   T   T   T
  1.4863292214422956  0.5525174397538011  0.4062682607644055   T   T   T
  1.0534766913318658 -0.0413564426366141  0.4008955760442712   T   T   T
  1.5524556170266299  0.4567374748600131  0.4111891110742104   T   T   T
  1.1238936078849286 -0.1360855891130949  0.3993691659337840   T   T   T
  1.6247002229538394  0.3674910876428557  0.4053727397090263   T   T   T
  1.1929907851784773  0.7724233143413092  0.4043544500474476   T   T   T
  1.6913864540557639  0.2735232010735780  0.4038090479572013   T   T   T
  0.7610960548313301  0.1789111454945648  0.4004019733896494   T   T   T
  1.2598081474561016  0.6774805004358970  0.4055047929364340   T   T   T
  0.8311231384348033  0.0863144243862475  0.3957823407726376   T   T   T
  1.3308855810884561  0.5847401498287079  0.4039434549313891   T   T   T
  1.0639009399651636  0.1073042882566347  0.3967753731992831   T   T   T
  1.5664589352518052  0.6087830302199179  0.4046830142637885   T   T   T
  1.1357015823949463  0.0164448883833573  0.4021529147779372   T   T   T
  1.6363637998697231  0.5170031131026147  0.4040339340853389   T   T   T
  1.2046713714308435 -0.0750943838076213  0.4020849355026979   T   T   T
  1.7055512464017413  0.4226159567211057  0.3990879980892018   T   T   T
  0.7735978751423033  0.3300191564090911  0.4022840489570990   T   T   T
  1.2738359870729041 -0.1719306313400600  0.4023719247906449   T   T   T
  0.8416423214922800  0.2368744960679792  0.3967570843312265   T   T   T
  1.3434195174062995  0.7340257265683776  0.4057545798696622   T   T   T
  0.9115556985962336  0.1407060504660199  0.3991200236860125   T   T   T
  1.4160520773673126  0.6429568084744546  0.4026707206942519   T   T   T
  1.1472244150919966  0.1685397119034004  0.3994071738569426   T   T   T
  1.6484211711299546  0.6665527463744465  0.4017856047117753   T   T   T
  0.7172561372614024  0.5755760262804848  0.4007293162616244   T   T   T
  1.2168409817769712  0.0753602712639860  0.4041344907840891   T   T   T
  0.7855106000905194  0.4819597099492842  0.3992421799882879   T   T   T
  1.2862444211225850 -0.0206188031514863  0.4063457558035474   T   T   T
  0.8557448786801065  0.3895576015662180  0.4015507923145498   T   T   T
  1.3540465657152434 -0.1130176672512886  0.4081571963559745   T   T   T
  0.9250432531349001  0.2938465790645487  0.4012047593427141   T   T   T
  1.4242088086951992  0.7935398214637402  0.4096943620804842   T   T   T
  0.9934644072185103  0.2019957448895930  0.4023994411211040   T   T   T
  1.4975435377598407  0.7019310748958119  0.4106844700055969   T   T   T
  0.7285404869219417  0.7276149374627705  0.4035099235605122   T   T   T
  1.2282703713197622  0.2266958848588800  0.3979258079460135   T   T   T
  0.7982793943976042  0.6352272011335554  0.3978399335081974   T   T   T
  1.2982084634033173  0.1324262668566457  0.4038713449950057   T   T   T
  0.8697625909542753  0.5395459737999094  0.4043589256923609   T   T   T
  1.3673062774782325  0.0384403317911389  0.4103698862398213   T   T   T
  0.9376939473283382  0.4456711901553080  0.4015500156568516   T   T   T
  1.4354526486893195 -0.0547995126080926  0.4124661327451022   T   T   T
  1.0059550094460727  0.3549362101021097  0.4032602582713217   T   T   T
  1.5055833850537770 -0.1481711826669373  0.4127047027672979   T   T   T
  1.0761919205216233  0.2596278158984227  0.4000197046234716   T   T   T
  1.5770859160750264  0.7606553365298249  0.4057468132316479   T   T   T
  1.0877299409343604  0.4123962293222880  0.4002852409680707   T   T   T
  1.5863111411673430 -0.0901533893072676  0.4089915459797399   T   T   T
  1.1576023834822460  0.3188382253226969  0.4004889538882303   T   T   T
  1.6573563643539870 -0.1814949192668134  0.4030149236961663   T   T   T
  0.0503272789707790  0.4972288651776433  0.2630355118203028   T   T   T
  0.5474975601885576  0.9885350490415584  0.2670144406206723   T   T   T
 -0.1017674191756475  0.7804574045816900  0.2511719311008294   T   T   T
  0.4069313153685943  0.2774147710968782  0.2692441245038621   T   T   T
 -0.1738221525331882  0.4185126161026516  0.2512484737969607   T   T   T
  0.3348754265814106  0.9354879951019360  0.2699375420088374   T   T   T
  0.1805164619237040  0.2106306725628238  0.2636626473002460   T   T   T
  0.6854188580084042  0.7125970591523481  0.2713163911830666   T   T   T
  0.1149304150705809  0.8571405463879153  0.2623350302529409   T   T   T
  0.6171868799540219  0.3489716095984856  0.2683585666170316   T   T   T
 -0.0267108964535316  0.1266631680669945  0.2581526802164434   T   T   T
  0.4735465656214472  0.6345369578480373  0.2668686757417708   T   T   T
  0.2632537630988719  0.5794562941634173  0.2695739964326072   T   T   T
  0.7600298171458617  1.0701580533492339  0.2570757571761134   T   T   T
 -0.2456071804720871  1.0650413888019385  0.1814359561785515   T   T   T
  0.2644711904059368  0.5670880952722351  0.1931732023840997   T   T   T
  0.0542510470153145  0.4979521406956535  0.1852315362364027   T   T   T
  0.5435966061933144  0.9911229893319069  0.1923554852466998   T   T   T
 -0.1015337675410178  0.7785326133622098  0.1771603076550322   T   T   T
  0.4029264246514302  0.2818761374200001  0.1964991096022580   T   T   T
 -0.1726601770134197  0.4176237689390596  0.1767917218928627   T   T   T
  0.3303539098203934  0.9266465617343408  0.1934039231026324   T   T   T
  0.1844678875212230  0.2080767577889317  0.1911906284045727   T   T   T
  0.6802151354963365  0.7001766568753917  0.1974337069738364   T   T   T
  0.1177111784151947  0.8580256668559159  0.1878018588719963   T   T   T
  0.6129047483577884  0.3439789250507096  0.1919963650920869   T   T   T
 -0.0252965141891297  0.1348903269789804  0.1837980367650191   T   T   T
  0.4745136007108139  0.6392686297024427  0.1911797025020737   T   T   T
  0.0268830042952280  0.3801132802739728  0.2820593971945020   T   T   T
  0.5306206907246738  0.8719790691137047  0.2830317918933147   T   T   T
 -0.1217209202832048  0.6552856087891765  0.2681203653542620   T   T   T
  0.3860441157179263  0.1607801860468804  0.2873190966003627   T   T   T
  0.2381478901321522  0.4699723407103292  0.2891853771201283   T   T   T
  0.7395559872883828  0.9472405803441520  0.2716730781980350   T   T   T
 -0.2022471284093361  0.3115448630275167  0.2739871048732970   T   T   T
  0.3030628116796877  0.8274168454221938  0.2892929518296393   T   T   T
  0.1656946979629365  0.0916839949915924  0.2846255859237304   T   T   T
  0.6700706460436227  0.5955136002331470  0.2947877208155415   T   T   T
  0.0953348627614746  0.7397991670165550  0.2847081287577521   T   T   T
  0.5998857881474577  0.2319520585074274  0.2889317566478776   T   T   T
 -0.0490524236267429  1.0137081976732243  0.2769166853663126   T   T   T
  0.4515780695236590  0.5191832432935451  0.2861938025656838   T   T   T
 -0.0001921168379724  0.5833068944683141  0.2780302641317414   T   T   T
  0.4979565001821670  0.0700839805006852  0.2921335087878652   T   T   T
 -0.1403747719458801  0.8758761623039070  0.2698335919580053   T   T   T
  0.3597249276936801  0.3646994265010079  0.2924083815494740   T   T   T
 -0.2165037554172187  0.5138996834494911  0.2785194931443893   T   T   T
  0.2844433277095272  1.0274116710626469  0.2804140325536159   T   T   T
  0.1335206347738673  0.2976510468433813  0.2826096673083580   T   T   T
  0.6353922776531050  0.8013231773849281  0.2898330190846105   T   T   T
  0.2181785535598652  0.6768675479676450  0.2849963766816588   T   T   T
  0.7171723432549304  0.1599314568993792  0.2750001263600021   T   T   T
  0.0588674021576354  0.9373193783368086  0.2835200367784638   T   T   T
  0.5691587267231035  0.4317896863306505  0.2941433936898796   T   T   T
 -0.0758229944661437  0.2196466609318501  0.2791138706186750   T   T   T
  0.4291663871873709  0.7260038910324981  0.2929519003108974   T   T   T
  0.1173487714167140  0.5138212302140063  0.2839864662497577   T   T   T
  0.6149463802561488  1.0326024887859029  0.2841641387425642   T   T   T
 -0.0347496021851890  0.8059415293394092  0.2730414503065393   T   T   T
  0.4760242621314893  0.3042616834980954  0.2841541138598797   T   T   T
 -0.1046207528288993  0.4427480209346798  0.2695545001517031   T   T   T
  0.3991474540909250  0.9660913835417682  0.2975940697988461   T   T   T
  0.2475785971335817  0.2326126587155446  0.2851075919564589   T   T   T
  0.7514443739518905  0.7571614739233918  0.2844874915589533   T   T   T
  0.1792498201924499  0.8782808163822902  0.2862164692738514   T   T   T
  0.6852155704684213  0.3742797375354016  0.2872824271021930   T   T   T
  0.0344377422169029  0.1679574781756656  0.2824648380175810   T   T   T
  0.5405323816182558  0.6703409370641175  0.2869568257916773   T   T   T
 -0.1696516752155375  0.0710637493303864  0.2691343563095003   T   T   T
  0.3345254201235967  0.5925922299722395  0.2806780288566019   T   T   T
  0.0972063395275619  0.3951641742319420  0.1681179375384928   T   T   T
  0.5917157989403969  0.9048592231860120  0.1741519978615950   T   T   T
 -0.0549781294777477  0.6895063370547987  0.1622267363969022   T   T   T
  0.4464214674542117  0.1947621981956811  0.1732692777434747   T   T   T
 -0.2031621181652721  0.9669717509416096  0.1557690059355219   T   T   T
  0.3001692679335253  0.4605392340070451  0.1755246725837064   T   T   T
 -0.1278520763272984  0.3249528589991854  0.1640036944569893   T   T   T
  0.3705884957756849  0.8325649864795556  0.1733718787620204   T   T   T
  0.2299058611907764  0.1124780551717291  0.1699222525988805   T   T   T
  0.7296061936637908  0.6134602656979593  0.1801508521266451   T   T   T
  0.1594806015985879  0.7569712351635351  0.1684484241218169   T   T   T
  0.6517086038890150  0.2511867504890143  0.1625105498268054   T   T   T
  0.0221919886795061  1.0462046696039862  0.1673749633803508   T   T   T
  0.5152739968723454  0.5444350606662710  0.1707911112145727   T   T   T
  0.0797802902101475  0.6071958511061657  0.1662230053890056   T   T   T
  0.5606696575781372  0.1098836549144690  0.1803325209017516   T   T   T
 -0.0730668571336980  0.8872930055019437  0.1533089900300635   T   T   T
  0.4276662527086053  0.3927071556978569  0.1812564914360864   T   T   T
 -0.1493209408167839  0.5346870787464112  0.1596685265552973   T   T   T
  0.3596640130678641  1.0377845447147933  0.1708932189943845   T   T   T
  0.2170232953996559  0.3118485015016165  0.1684818545299409   T   T   T
  0.6984503250649040  0.8093768090048793  0.1708599001693445   T   T   T
 -0.2111920345533790  0.1715433869326634  0.1586216505564705   T   T   T
  0.2898823417325627  0.6782565578103885  0.1692577789367044   T   T   T
  0.1387203521155534  0.9681134099891893  0.1711306994370933   T   T   T
  0.6336252843062212  0.4635422058094917  0.1767221482986845   T   T   T
 -0.0014165197316662  0.2507468913054919  0.1681673100638449   T   T   T
  0.4896142823150791  0.7585098506999204  0.1747702331665401   T   T   T
  0.1929955165467561  0.5559293509748884  0.1741521501299422   T   T   T
  0.6882265815768929  1.0506529868263847  0.1581441033358719   T   T   T
 -0.0125286117943256  0.4670268693526382  0.1670751768328053   T   T   T
  0.4742891544777748  0.9692093693591421  0.1749655879904493   T   T   T
 -0.1674396168096318  0.7562185762315070  0.1570742976644328   T   T   T
  0.3273437761249160  0.2677314429326967  0.1812262780950130   T   T   T
 -0.2426335047660753  0.3963114660423551  0.1618582700662740   T   T   T
  0.2636676701101351  0.9065573384579567  0.1679867538525476   T   T   T
  0.1168501064507644  0.1812922939581323  0.1696655333078083   T   T   T
  0.6134985701184511  0.6670478470397218  0.1773627392640259   T   T   T
  0.0504025216712477  0.8201165604289528  0.1711132053165244   T   T   T
  0.5447546215241156  0.3236362017803391  0.1802318837453296   T   T   T
 -0.0975101733339300  0.1235496135282084  0.1630121670282250   T   T   T
  0.4049172625676167  0.6273404603904307  0.1699517139573540   T   T   T
  0.0188168936823389  0.7087425803997404  0.2685226270229738   T   T   T
  0.5243355503419039  0.2015214821945631  0.2751690620571624   T   T   T
 -0.0487441874720651  0.3452449910523473  0.2649830527550815   T   T   T
  0.4510468701261654  0.8534621739729837  0.2831306101983300   T   T   T
 -0.2031759581900623  0.6461685516915898  0.2680881653949737   T   T   T
  0.3071120828556144  0.1372226230348497  0.1902314487053261   T   T   T
  0.1701286009906326  0.4144442230365297  0.1876030112776372   T   T   T
  0.6630399424872130  0.9279581669581805  0.2770117335791501   T   T   T
  0.2396256972109629  0.7793861980263501  0.1798233647090039   T   T   T
  0.7341537091553814  0.2671922676342221  0.1716299149631120   T   T   T
  0.0886093271803561  0.0623585538245049  0.2764927865277074   T   T   T
  0.5888538250286338  0.5640022083528373  0.2830145432342201   T   T   T
 -0.1203481712739186  0.9986371068736198  0.1692748079395758   T   T   T
  0.3759968157441819  0.4993983957105435  0.1938689782558711   T   T   T
  0.1446529436020980  0.6376719419406385  0.2334415080790474   T   T   T
  0.6388534197642424  0.1302528486346804  0.2205121019219814   T   T   T
 -0.0756008920269862  0.5558278966828597  0.2088693548424988   T   T   T
  0.4243352429255838  0.0627193523473763  0.2299337642620711   T   T   T
 -0.2195608371884876  0.8517749842988628  0.2118906642468604   T   T   T
  0.2860246138253513  0.3578304423213101  0.2408767838399585   T   T   T
 -0.1529464307852946  0.2091317320418105  0.2268054538427833   T   T   T
  0.3549265383680487  0.7216928796167581  0.2337436483886563   T   T   T
  0.2097702057788952  0.9901444664491680  0.2267955111911877   T   T   T
  0.7062059990285857  0.4914139846121397  0.2313217144680685   T   T   T
  0.0670718438458940  0.2835719186793705  0.2222945341851436   T   T   T
  0.5701846347070112  0.7772010411669112  0.2204793505047652   T   T   T
 -0.0009566643572385  0.9241227818124597  0.2161701192009142   T   T   T
  0.4994505785333226  0.4314748560676351  0.2322545247095910   T   T   T
 
  0.29735905E-02 -0.33949158E-02 -0.34121176E-02
  0.44542511E-02 -0.27089069E-02 -0.14536153E-02
  0.56954743E-02 -0.23109859E-02  0.20335290E-02
 -0.26764225E-02  0.34544912E-02 -0.12691659E-02
  0.11020869E-02 -0.68267732E-02  0.18682426E-02
  0.45601310E-02 -0.47462412E-02  0.74007635E-03
 -0.40143568E-02 -0.18998379E-02  0.85366933E-03
 -0.54446368E-02 -0.49182563E-02  0.42818363E-02
  0.12643850E-02  0.13579542E-02 -0.56412347E-02
 -0.35978902E-02 -0.39850612E-02 -0.28358883E-02
 -0.52589690E-03  0.66086594E-02 -0.35027485E-02
 -0.50556755E-02  0.33361795E-02  0.29890874E-02
  0.71481249E-02 -0.13070988E-02  0.66343253E-02
  0.27145575E-02  0.71402301E-03 -0.19325982E-02
 -0.81573806E-03 -0.17406409E-02 -0.64335820E-03
  0.65962610E-02 -0.47421419E-02  0.31029746E-02
 -0.94039715E-03 -0.74615915E-02  0.59067676E-03
  0.17244441E-02 -0.22545466E-02 -0.13832776E-02
  0.17219379E-02  0.40995172E-02 -0.25341348E-02
  0.45604531E-02 -0.45883552E-04 -0.63579072E-02
  0.80494845E-03  0.31514861E-02 -0.11862916E-03
  0.21165773E-02  0.39571013E-02 -0.91700548E-02
  0.27950955E-02  0.13306635E-02  0.38509746E-02
 -0.85518090E-02 -0.42912572E-02  0.15905430E-02
  0.77565354E-02  0.13561433E-02 -0.59144888E-02
 -0.23099886E-02  0.90785546E-02 -0.39118008E-02
  0.79472535E-03  0.41267069E-02 -0.22476532E-02
  0.27682990E-02 -0.52840726E-02  0.34973956E-02
 -0.10076097E-02 -0.26594307E-02 -0.65140012E-02
 -0.25232627E-02  0.35865308E-02 -0.58941570E-02
 -0.14643589E-02  0.24601508E-02 -0.39661845E-02
  0.81106173E-02  0.60475554E-03  0.97001017E-03
  0.21054614E-03  0.59150763E-02  0.16140338E-02
  0.13763662E-02  0.30824830E-02 -0.28944454E-02
 -0.26504577E-02 -0.51895496E-02 -0.44819784E-02
 -0.56136504E-02 -0.90673725E-03  0.13170913E-02
  0.16601763E-02 -0.47409826E-02 -0.33372723E-02
  0.53849757E-02 -0.76833484E-02 -0.47257468E-02
  0.19812614E-02 -0.75564171E-02 -0.67086021E-03
  0.18858522E-02 -0.44650585E-02  0.27924226E-03
 -0.34122589E-02 -0.15503769E-01 -0.77438924E-02
  0.51610938E-03  0.51259934E-02  0.38854259E-03
  0.97209260E-03 -0.54851585E-02  0.41148393E-02
  0.56802094E-02  0.47873673E-02  0.59264616E-02
  0.12328499E-02  0.72301838E-03 -0.46408802E-02
 -0.25658781E-02  0.43142626E-02 -0.86659183E-02
 -0.39744244E-03  0.11739997E-02 -0.81038578E-02
 -0.29045370E-02 -0.11767886E-02 -0.27264707E-02
 -0.47751409E-02 -0.45668161E-02 -0.35558784E-03
  0.15311183E-02  0.48242095E-03 -0.33121296E-03
 -0.81722947E-03  0.43855604E-02 -0.57885056E-02
 -0.12439357E-02  0.96804724E-02  0.18067962E-02
 -0.23883073E-02  0.30577604E-02 -0.22507647E-02
  0.19485359E-02 -0.11185576E-02 -0.44051325E-02
 -0.20326371E-02 -0.22737846E-02  0.29210135E-02
 -0.77949088E-04 -0.49799735E-03 -0.34239655E-02
  0.22339113E-02  0.58198504E-02  0.76950496E-02
 -0.35702351E-02 -0.33725885E-03  0.42316620E-02
  0.73173840E-02  0.10645296E-01 -0.14011650E-02
 -0.64242970E-02  0.20992176E-04 -0.67887327E-02
  0.31879444E-02 -0.28292417E-02  0.16450744E-02
  0.41054995E-02 -0.81668967E-02  0.10819858E-02
  0.11250251E-02  0.20121924E-02  0.96130722E-03
  0.22235702E-02 -0.27344475E-02  0.36095001E-03
  0.16202293E-02 -0.22144304E-02  0.99631964E-03
  0.57410039E-02 -0.11348811E-01  0.10113781E-02
  0.31713470E-02  0.54369103E-03 -0.29126356E-02
 -0.27812195E-03 -0.30793467E-02  0.23536076E-02
 -0.46200063E-02  0.35407067E-02  0.18809574E-02
  0.43822093E-03  0.70603353E-03 -0.79369494E-03
 -0.13569396E-02 -0.11571618E-03  0.44408426E-02
  0.28886537E-02  0.39067280E-02 -0.42262220E-02
  0.27123739E-02 -0.33790500E-02  0.36644153E-02
  0.68111515E-02  0.23203184E-02  0.16184602E-02
 -0.59480453E-02 -0.19708960E-02 -0.63774568E-02
  0.14602831E-02  0.57611710E-02  0.50586043E-02
 -0.40375406E-02  0.33615032E-02 -0.28098644E-02
 -0.72876608E-02  0.94982521E-03  0.10155453E-02
 -0.39479109E-02  0.16970978E-02  0.27222527E-04
  0.14747521E-03 -0.14333559E-02 -0.10354870E-02
 -0.19209226E-03  0.28283055E-02 -0.18592735E-02
 -0.43892242E-02 -0.60768624E-02  0.25928886E-02
 -0.50292859E-02  0.36602858E-02 -0.35545308E-02
  0.16625749E-02  0.12415907E-02  0.20308529E-02
  0.35997214E-02  0.78703064E-03 -0.53643423E-02
  0.24538118E-02 -0.12510962E-02 -0.24705161E-02
  0.10150841E-01  0.59302316E-04  0.19987882E-02
 -0.14969793E-02 -0.14922254E-02  0.36464524E-02
 -0.25325413E-02  0.75622579E-02 -0.40193696E-02
  0.22956217E-02 -0.16060707E-02 -0.60407288E-02
 -0.10404111E-02 -0.25475336E-03 -0.14471432E-02
  0.59194286E-02  0.12884247E-02 -0.87339344E-02
  0.31279385E-02  0.71403831E-02 -0.69077424E-02
 -0.45154054E-02  0.61307266E-02  0.27058055E-02
 -0.25492717E-02  0.93269754E-02 -0.67693430E-03
  0.22503410E-02  0.74327328E-02 -0.10622683E-01
  0.83979090E-03  0.23317844E-03  0.18601327E-02
  0.24632649E-02 -0.18103053E-02  0.45143842E-02
 -0.16376145E-02  0.49626716E-02  0.14842909E-02
 -0.51497385E-03  0.29517956E-02 -0.25768137E-02
 -0.78268390E-02 -0.49849216E-02  0.22500814E-02
  0.35054248E-02  0.16287526E-02 -0.95513776E-03
  0.17595444E-02 -0.11601040E-02  0.54032327E-02
  0.24035580E-02  0.96113230E-03 -0.48740658E-03
  0.53373476E-02  0.38159242E-02 -0.36966714E-02
  0.27271487E-02 -0.17738581E-02  0.13827283E-03
 -0.39626672E-02 -0.13197270E-02  0.38343210E-02
 -0.63197931E-02  0.39770261E-02 -0.34124319E-03
 -0.95777364E-02 -0.15137452E-03  0.10825194E-01
  0.10380520E-02  0.14700355E-02  0.60633473E-02
  0.21953078E-02  0.67349333E-02 -0.33033198E-02
  0.37944759E-02 -0.65142828E-02  0.56276610E-02
  0.22801701E-02 -0.69246942E-02 -0.30598483E-02
  0.25331908E-05 -0.39078356E-02  0.29053329E-02
  0.20860085E-02 -0.13236811E-02  0.29225311E-02
  0.29099791E-02  0.48484435E-02  0.20019608E-02
 -0.87672317E-03  0.32966237E-02  0.57048951E-02
  0.55453434E-03  0.72989859E-03  0.10629558E-02
  0.46808369E-02 -0.44678397E-02  0.46847227E-02
 -0.88661811E-02  0.16488290E-03  0.44617051E-02
  0.12171011E-02  0.47703185E-04 -0.21580793E-02
 -0.20001977E-02 -0.15834450E-02 -0.85939699E-02
 -0.78658853E-03  0.93733647E-02  0.96554098E-03
  0.37190269E-03 -0.34090414E-02  0.27351759E-02
  0.22319556E-02  0.18082417E-02  0.74528986E-03
 -0.80402244E-03 -0.27806066E-02  0.12194556E-02
  0.29675906E-02 -0.51320543E-03 -0.17354794E-02
 -0.15452567E-02 -0.72149087E-02  0.55209877E-02
  0.39759380E-02 -0.15553147E-02  0.42354964E-02
 -0.54208200E-02  0.44170589E-02  0.33725854E-02
 -0.23844489E-02 -0.17249897E-02  0.26010177E-03
 -0.16324130E-02  0.20611942E-03  0.11753534E-01
  0.10100427E-01 -0.34049399E-02  0.10690714E-02
 -0.23628299E-02 -0.28093128E-02 -0.22753689E-02
  0.83977783E-02 -0.52672905E-02 -0.80724003E-02
 -0.51967138E-02  0.21023953E-02 -0.49870659E-03
 -0.44227270E-03 -0.18210061E-02  0.72658640E-02
  0.21238447E-04  0.15001245E-02 -0.18346232E-02
 -0.42907506E-02  0.15249040E-02 -0.68406887E-02
 -0.83792785E-02 -0.11390753E-01  0.29116453E-02