largec3                                 
   1.00000000000000     
    28.0032999999999994    0.0000000000000000    0.0000000000000000
     0.0000000000000000   16.1677000000000000    0.0000000000000000
     0.0000000000000000    0.0000000000000000   30.0000000000000000
   C    P    S    Cu   In
   172    28    84    14    14
Selective dynamics
Direct
  0.0815327012225332  0.0605823764755588  0.4017633722137482   T   T   T
  0.5815341213507650  0.5605824295896527  0.4017643734881527   T   T   T
  0.1529000487550735  0.9662160456094194  0.4018466336450815   T   T   T
  0.6529002539713576  0.4662156941707217  0.4018466062353739   T   T   T
  0.2219836471656385  0.8721596974445096  0.4018041779331756   T   T   T
  0.7219836882826214  0.3721596022553179  0.4018041739975792   T   T   T
  0.2908947345247705  0.7779156237888744  0.4018398113051319   T   T   T
  0.7908945525845655  0.2779156698912338  0.4018397893313493   T   T   T
  0.3596814917407705  0.6835451488592311  0.4044320928961008   T   T   T
  0.8596816026336586  0.1835450314647210  0.4044316450527517   T   T   T
  0.4283049865618941  0.5906272939765543  0.4018705320717731   T   T   T
  0.9283048878353476  0.0906275012784283  0.4018709604450412   T   T   T
  0.4991462179956172  0.5006500726490518  0.4023537538498852   T   T   T
  0.9991444453728976  0.0006522577371979  0.4023545790998905   T   T   T
  0.1629385162924384  0.1165514636127148  0.4018616781360497   T   T   T
  0.6629389355281837  0.6165515282887269  0.4018619772930353   T   T   T
  0.2340570050113159  0.0228578896939360  0.4017892273242191   T   T   T
  0.7340571897778911  0.5228579494856763  0.4017891578405648   T   T   T
  0.3031768758612367  0.9316795315227300  0.4017569568036018   T   T   T
  0.8031773309037655  0.4316794886755647  0.4017567051394474   T   T   T
  0.3720446566572377  0.8387447898736883  0.4041021282017022   T   T   T
  0.8720445992897892  0.3387443510796095  0.4041016249274408   T   T   T
  0.4408074570911778  0.7442243013269428  0.4018855818865038   T   T   T
  0.9408068249607746  0.2442250641752098  0.4018852291539665   T   T   T
  0.0096926254175816  0.1536800871788097  0.4018680090601894   T   T   T
  0.5096926396529359  0.6536802560663536  0.4018679424544782   T   T   T
  0.2438137529094933  0.1750192210771941  0.4045796054515114   T   T   T
  0.7438137175410627  0.6750189730506316  0.4045798366814224   T   T   T
  0.3130865137226790  0.0829790501910408  0.4017885720273878   T   T   T
  0.8130868600642940  0.5829790941969105  0.4017884864165829   T   T   T
  0.3842908255578650  0.9896861112181397  0.4018641209623972   T   T   T
  0.8842894166148959  0.4896843310976575  0.4018648346322998   T   T   T
  0.4531653253367313  0.8947637044342802  0.4018049097373536   T   T   T
  0.9531645749844291  0.3947627879729912  0.4018049413019412   T   T   T
  0.0220987851097025  0.3051396267737565  0.4043507113000437   T   T   T
  0.5221004030473267  0.8051447426117680  0.4043572883278286   T   T   T
  0.0909445388296642  0.2102769131392529  0.4017696417475203   T   T   T
  0.5909450368675399  0.7102749026649268  0.4017689565583916   T   T   T
  0.3276693675100152  0.2330916869004117  0.4018050732476754   T   T   T
  0.8276693526466815  0.7330903620242457  0.4018060378695300   T   T   T
  0.3957578028489050  0.1404502374010878  0.4029640386621058   T   T   T
  0.8957574232983583  0.6404485914819157  0.4029647914353816   T   T   T
  0.4654485788149223  0.0496073354507436  0.4046136204556339   T   T   T
  0.9654466324237709  0.5496064333422046  0.4046140967498112   T   T   T
  0.0341689428769734  0.4549429018296638  0.4017786292535361   T   T   T
  0.5341692245419525  0.9549466154001940  0.4017745190750162   T   T   T
  0.1033989813634172  0.3610746206981136  0.4040978589231229   T   T   T
  0.6033988177428077  0.8610754658725254  0.4040976540545138   T   T   T
  0.1722602547914968  0.2670794512400782  0.4019207135638074   T   T   T
  0.6722602397677488  0.7670784401817352  0.4019208549763706   T   T   T
  0.4090513788571420  0.2895138499848358  0.4017716298239423   T   T   T
  0.9090513738640409  0.7895154992649356  0.4017719537210133   T   T   T
  0.4781331437781338  0.1984539349859696  0.4019187856749877   T   T   T
  0.9781296437396642  0.6984577238883155  0.4019291213311607   T   T   T
  0.0469011426928514  0.6054191531348412  0.4018315138952611   T   T   T
  0.5469019491717134  0.1054179800248685  0.4018321264785546   T   T   T
  0.1153953100511611  0.5113237546906551  0.4017757499929068   T   T   T
  0.6153937503663112  0.0113254030696130  0.4017748471427112   T   T   T
  0.1845196063345487  0.4204603029330799  0.4018729608399875   T   T   T
  0.6845184622626150  0.9204603912593931  0.4018724037842567   T   T   T
  0.2543948836626850  0.3262321698878531  0.4030136179065651   T   T   T
  0.7543944840143209  0.8262310504421363  0.4030136422205222   T   T   T
  0.4882803996676235  0.3498659902981045  0.4017776625475535   T   T   T
  0.9882806743953102  0.8498658165853394  0.4017775398223994   T   T   T
  0.0595938637787369  0.7558999731952811  0.4019108922445246   T   T   T
  0.5595944068589083  0.2558970194931010  0.4019091500271196   T   T   T
  0.1283857766130918  0.6613279897402828  0.4043867471294744   T   T   T
  0.6283858726923612  0.1613296376142477  0.4043854414973400   T   T   T
  0.1969890847570848  0.5683802354079878  0.4018801495973458   T   T   T
  0.6969871479023633  0.0683805739245043  0.4018792407726371   T   T   T
  0.2660113571476609  0.4762078905367766  0.4017821441445091   T   T   T
  0.7660112293081436  0.9762078621876243  0.4017824499828199   T   T   T
  0.3371643981769986  0.3830732765871966  0.4017871459261089   T   T   T
  0.8371645978568287  0.8830734660253095  0.4017871478096136   T   T   T
  0.0715798606139606  0.9094593238068621  0.4018758050858960   T   T   T
  0.5715801327714889  0.4094587058788416  0.4018756121159138   T   T   T
  0.1407859269783450  0.8162642106817076  0.4045974579904529   T   T   T
  0.6407865820317890  0.3162619206581886  0.4045952403721320   T   T   T
  0.2092852260675721  0.7181645946427243  0.4042072354846160   T   T   T
  0.7092834978227399  0.2181649326075560  0.4042063788001805   T   T   T
  0.2783463423536908  0.6275290821266076  0.4046529298191859   T   T   T
  0.7783461599639017  0.1275293236786189  0.4046532592709390   T   T   T
  0.3471501624385687  0.5331085111591651  0.4017776045615233   T   T   T
  0.8471501255301733  0.0331084254890738  0.4017775225898578   T   T   T
  0.4181159312877477  0.4394284515073127  0.4017808270681834   T   T   T
  0.9181162604805063  0.9394282636869011  0.4017805044109653   T   T   T
  0.1027674255280889  0.9783505524089939  0.4017854342277863   T   T   T
  0.6027661155998064  0.4783503817891538  0.4017854923456314   T   T   T
  0.1717605821194796  0.8836355422237374  0.4043298834731495   T   T   T
  0.6717591509474784  0.3836344749616775  0.4043307658109122   T   T   T
  0.2407712728465244  0.7891514023362740  0.4018283609866890   T   T   T
  0.7407710135329906  0.2891513799530994  0.4018282837030253   T   T   T
  0.3095770116636787  0.6948108913255926  0.4046712260224065   T   T   T
  0.8095767245997342  0.1948112203168028  0.4046709710679676   T   T   T
  0.1839680047690969  0.0348773323567232  0.4017801773593426   T   T   T
  0.6839678521264507  0.5348782282153154  0.4017802263005742   T   T   T
  0.2530240299915570  0.9427140773219235  0.4017372658446758   T   T   T
  0.7530240727406350  0.4427139033060127  0.4017371954758522   T   T   T
  0.3217914306430313  0.8499052231949132  0.4018135441011653   T   T   T
  0.8217915478850089  0.3499054232949912  0.4018134573134720   T   T   T
  0.3904159676493055  0.7555581320342091  0.4018820870567126   T   T   T
  0.8904161025749977  0.2555587551847450  0.4018819833361237   T   T   T
  0.4591914017178296  0.6613606057067684  0.4041143695513578   T   T   T
  0.9591920250640005  0.1613609015710122  0.4041136465116519   T   T   T
  0.0307035837748385  0.0720572671543370  0.4017960392856061   T   T   T
  0.5307041911690581  0.5720573492038648  0.4017959481258457   T   T   T
  0.1935686460972056  0.1861202821513051  0.4044360076075699   T   T   T
  0.6935684980958475  0.6861206140117714  0.4044366826642434   T   T   T
  0.2630469053081076  0.0943350736779866  0.4018793518793508   T   T   T
  0.7630469092221549  0.5943354791997181  0.4018793510883880   T   T   T
  0.3340686897863661  0.0007650103116302  0.4017751512729453   T   T   T
  0.8340687813493205  0.5007647406336847  0.4017753465670701   T   T   T
  0.4030678428185888  0.9092784879614979  0.4018779591407744   T   T   T
  0.9030671041298718  0.4092786911774373  0.4018782347962913   T   T   T
  0.4717240952238480  0.8157013608760515  0.4041903524621651   T   T   T
  0.9717234652249902  0.3156994343639946  0.4041897268237906   T   T   T
  0.0408140980365034  0.2225844469514832  0.4018530777520231   T   T   T
  0.5408137367262056  0.7225878953022297  0.4018526096696077   T   T   T
  0.1121576415054705  0.1281825769348086  0.4017659030749466   T   T   T
  0.6121585781472979  0.6281833491418325  0.4017661759542951   T   T   T
  0.2751918075935701  0.2449251091777270  0.4032460053860106   T   T   T
  0.7751906995756155  0.7449218044085930  0.4032461741617401   T   T   T
  0.3444743805317008  0.1503853614107556  0.4018154062448325   T   T   T
  0.8444734325611117  0.6503848422816748  0.4018163301559775   T   T   T
  0.4153081933717719  0.0608464294458682  0.4045583936214280   T   T   T
  0.9153072099066657  0.5608455106579208  0.4045577609815103   T   T   T
  0.4841078598468297  0.9666109125516030  0.4018331102485572   T   T   T
  0.9841073013136985  0.4666096102962349  0.4018340931963575   T   T   T
  0.0531167684291150  0.3723719029939704  0.4018358728819625   T   T   T
  0.5531165561762166  0.8723728688604063  0.4018356151240612   T   T   T
  0.1220833641848847  0.2785412759674068  0.4018468081347885   T   T   T
  0.6220837737145495  0.7785389828924051  0.4018462727349800   T   T   T
  0.3589035963232323  0.3014513972355632  0.4017831375297831   T   T   T
  0.8589034443913907  0.8014512980897037  0.4017841505072148   T   T   T
  0.4278878006594838  0.2095500698206751  0.4018310729505661   T   T   T
  0.9278872775090290  0.7095514970524508  0.4018336344449528   T   T   T
  0.4967161349703628  0.1168503684532887  0.4044016058409319   T   T   T
  0.9967086144436788  0.6168491167540429  0.4044220271351621   T   T   T
  0.0654082773948737  0.5230023331629279  0.4017827336167901   T   T   T
  0.5654077940604318  0.0230087802422173  0.4017826602064820   T   T   T
  0.1343272733336305  0.4315315892557785  0.4018841080643016   T   T   T
  0.6343256958626995  0.9315321661574421  0.4018833702342210   T   T   T
  0.2032892039504579  0.3386059342489780  0.4042027258534799   T   T   T
  0.7032885688375680  0.8386057407883127  0.4042021020326974   T   T   T
  0.4380921457518420  0.3608439789662176  0.4017871886917883   T   T   T
  0.9380922556613106  0.8608439907603044  0.4017868524171356   T   T   T
  0.0090968885268945  0.7674949256878885  0.4017578547754306   T   T   T
  0.5090970640733834  0.2674945786386521  0.4017549061205354   T   T   T
  0.0780801487225026  0.6727902810898899  0.4042065990837215   T   T   T
  0.5780726370040175  0.1727838866781847  0.4042077321928313   T   T   T
  0.1468808066964309  0.5795053671101313  0.4018903425649942   T   T   T
  0.6468777097691667  0.0795063862657064  0.4018849411591914   T   T   T
  0.2158920553845780  0.4884882199712741  0.4017789458885264   T   T   T
  0.7158918477201784  0.9884883419423671  0.4017791428339675   T   T   T
  0.2868569190862955  0.3945273637442411  0.4018057254703892   T   T   T
  0.7868569761210208  0.8945272143685659  0.4018057503994968   T   T   T
  0.0202585061784236  0.9192785606554723  0.4017972064162023   T   T   T
  0.5202584822113042  0.4192786551252087  0.4017971966788982   T   T   T
  0.0903421135289955  0.8276018252310456  0.4044507822071847   T   T   T
  0.5903416135290898  0.3275993684737808  0.4044427916105487   T   T   T
  0.1591398470702006  0.7328198392525933  0.4020140882441909   T   T   T
  0.6591394767386811  0.2328157772126784  0.4020156495312186   T   T   T
  0.2279117871990174  0.6386651623591415  0.4046302204366301   T   T   T
  0.7279116996643693  0.1386649032650625  0.4046299227392232   T   T   T
  0.2970444060460790  0.5449867509673696  0.4018489113668589   T   T   T
  0.7970447159890104  0.0449867727716288  0.4018491502058625   T   T   T
  0.3672544118567407  0.4524088610133782  0.4017719422032907   T   T   T
  0.8672546751819339  0.9524086984259781  0.4017717590280137   T   T   T
  0.3781941814271909  0.6017283570883386  0.4019036415373062   T   T   T
  0.8781942737734520  0.1017284573871108  0.4019035585579553   T   T   T
  0.4473266220288437  0.5106547050372314  0.4017953578193368   T   T   T
  0.9473267091934774  0.0106538621327411  0.4017955484681208   T   T   T
  0.2869798555341584  0.4308286751031823  0.2654285111250372   T   T   T
  0.7871696364504425  0.9307903243585297  0.2653986117153201   T   T   T
  0.1412580730400625  0.7125172946964839  0.2664410398735995   T   T   T
  0.6418448816741776  0.2126801244916591  0.2652061147838142   T   T   T
  0.0713461155220228  0.3548193638807890  0.2666586331079503   T   T   T
  0.5691909475683818  0.8564634005022511  0.2651483642728240   T   T   T
  0.4290039176380598  0.1443124151712675  0.2618007325906331   T   T   T
  0.9260012528133021  0.6435852985372217  0.2651616539619273   T   T   T
  0.3592128665009447  0.7878734242086703  0.2670107580286754   T   T   T
  0.8594156035912165  0.2881355145869058  0.2669733888286656   T   T   T
  0.2153608868496354  0.0671751084542143  0.2634727887140120   T   T   T
  0.7151932220251981  0.5675250504447343  0.2638754758588672   T   T   T
  0.4995429205395087  0.5000958387509157  0.2629843565570871   T   T   T
  0.9987446616354633  0.9993111137108367  0.2625366738311141   T   T   T
  0.0002082475468514  0.9993066011139766  0.1875639864115162   T   T   T
  0.5003864429075549  0.4994191629225476  0.1878199040759842   T   T   T
  0.2849312095622319  0.4317590041414155  0.1901453912612417   T   T   T
  0.7847665208942405  0.9316269261829404  0.1901183598474784   T   T   T
  0.1412223266579883  0.7103016261617155  0.1907340055297098   T   T   T
  0.6451453228753041  0.2115924978930050  0.1901287927053003   T   T   T
  0.0725269917482863  0.3544432943439011  0.1907945230585589   T   T   T
  0.5718061257856494  0.8549710894591523  0.1900714411289907   T   T   T
  0.4279217963316533  0.1433487669370048  0.1858730063839419   T   T   T
  0.9282864436068089  0.6423109800259501  0.1901402573375478   T   T   T
  0.3573210465566844  0.7875817616279532  0.1912529444945945   T   T   T
  0.8574809662046980  0.2877562882029100  0.1912675780501166   T   T   T
  0.2179643503364616  0.0684250900160341  0.1889561213709773   T   T   T
  0.7170533644137259  0.5725033336385301  0.1896060867275203   T   T   T
  0.2676437728339844  0.3123571772334144  0.2855417333974966   T   T   T
  0.7673749075137374  0.8126070864357150  0.2857388420837799   T   T   T
  0.1247790319120091  0.5939108614866936  0.2860042837699989   T   T   T
  0.6189384451107937  0.0997088800174503  0.2826942201523152   T   T   T
  0.4725594656310433  0.3882688411315748  0.2799071401545378   T   T   T
  0.9749474202838432  0.8857381012306819  0.2798278912109951   T   T   T
  0.0480705134429519  0.2432240087838728  0.2857758115753251   T   T   T
  0.5478779332636783  0.7437634769378966  0.2852904264883708   T   T   T
  0.4104179207891223  0.0276111555707727  0.2855007343266003   T   T   T
  0.9105722173648562  0.5235035218027824  0.2858935535099673   T   T   T
  0.3377297470068457  0.6705499099836161  0.2866430822382156   T   T   T
  0.8377610571848506  0.1709584373961978  0.2864745779859246   T   T   T
  0.1914660219491836  0.9550049638927022  0.2806017267317559   T   T   T
  0.6914467405361734  0.4551692734478164  0.2804877097754245   T   T   T
  0.2352696453662903  0.5130209510381775  0.2857681672671157   T   T   T
  0.7366960352212253  0.0154449349740491  0.2862501291979982   T   T   T
  0.0962850397807820  0.8016033348358521  0.2861969326401418   T   T   T
  0.6000053354925025  0.3100909756518375  0.2825897951358260   T   T   T
  0.0223670906968878  0.4437631602579359  0.2857878472232950   T   T   T
  0.5257662450726525  0.9514945196320903  0.2804434571285417   T   T   T
  0.3837766799479509  0.2342542172676673  0.2801257081387806   T   T   T
  0.8811261435424393  0.7332615622744382  0.2838302630833850   T   T   T
  0.4563066288835777  0.5948552703377868  0.2798943413029697   T   T   T
  0.9541460005866040  0.0910999859600045  0.2802039691180611   T   T   T
  0.3073380923461155  0.8721202404252942  0.2864902396091807   T   T   T
  0.8071754620581357  0.3720270348314370  0.2863690128288986   T   T   T
  0.1670800283951270  0.1564265840322556  0.2856877847958806   T   T   T
  0.6669472161062537  0.6566007465586431  0.2859201967156458   T   T   T
  0.3537776958198614  0.4547977851590665  0.2858278791619659   T   T   T
  0.8538690409912678  0.9546133097483926  0.2858092885929289   T   T   T
  0.2093491402498282  0.7447438491586902  0.2861516606256534   T   T   T
  0.7097398028008689  0.2453079281850016  0.2858407866221874   T   T   T
  0.1393289110589399  0.3892218323859009  0.2861404532095821   T   T   T
  0.6384416825771400  0.8882783259599615  0.2853551664842964   T   T   T
  0.4979940449752656  0.1568329295595779  0.2799996220794288   T   T   T
  0.9944733153117196  0.6719089492361383  0.2865877724263433   T   T   T
  0.4267635875613532  0.8105602511735108  0.2859814914482490   T   T   T
  0.9268236466732299  0.3113172321968944  0.2854440259708814   T   T   T
  0.2828297201230734  0.1010899757836247  0.2859034005575529   T   T   T
  0.7828146139726612  0.6012156945122559  0.2858993220533990   T   T   T
  0.0673855669484817  0.0208171327662936  0.2800696210434369   T   T   T
  0.5688281550589028  0.5172438646736646  0.2798800151782255   T   T   T
  0.3285650010752060  0.3346092778878879  0.1676901246332165   T   T   T
  0.8285750701404457  0.8347513648761125  0.1677780550682363   T   T   T
  0.1898190692844054  0.6234202416763046  0.1726077088278289   T   T   T
  0.6911655910287789  0.1223211687340925  0.1722623967321585   T   T   T
  0.0420902237890987  0.9013419047200737  0.1666500549146801   T   T   T
  0.5418260083988945  0.4011244241248718  0.1670780674890855   T   T   T
  0.1182308470661760  0.2638854353727975  0.1731965437258716   T   T   T
  0.6170297752872608  0.7652214094534915  0.1725082478005146   T   T   T
  0.4712199572144984  0.0454336738389381  0.1667677388347027   T   T   T
  0.9768199132469971  0.5552251036222768  0.1731086568153511   T   T   T
  0.3995327824603705  0.6891411608022094  0.1701969404561380   T   T   T
  0.8993653777157086  0.1889562592302161  0.1700803947315654   T   T   T
  0.2644979099500380  0.9783037656882335  0.1722342478367006   T   T   T
  0.7629520859018165  0.4821723175027133  0.1720588899583595   T   T   T
  0.3086340136486801  0.5444211720705647  0.1726400762757507   T   T   T
  0.8085247425711631  0.0443905570488606  0.1725541635126506   T   T   T
  0.1681310090287285  0.8236030660830617  0.1695553541320388   T   T   T
  0.6689974480616989  0.3255138466879950  0.1671942201137212   T   T   T
  0.0911974301945868  0.4691883942702313  0.1721607769006944   T   T   T
  0.5971605241029447  0.9677505237973141  0.1673657112483702   T   T   T
  0.4583918903100021  0.2550305576699594  0.1671273852962122   T   T   T
  0.9563786261678757  0.7549504581025958  0.1700042069482261   T   T   T
  0.0282678985825017  0.1106620360799155  0.1665196857695957   T   T   T
  0.5280692018851213  0.6113650469159935  0.1666496302771631   T   T   T
  0.3793701504277491  0.9005208519239701  0.1726548538632354   T   T   T
  0.8791780802629384  0.4007951760990302  0.1722851836105659   T   T   T
  0.2375004945799272  0.1844243014865203  0.1724346266141316   T   T   T
  0.7354652894103401  0.6886904936121845  0.1727800717448355   T   T   T
  0.4308817554709212  0.4851501875424384  0.1665157589233066   T   T   T
  0.9307101362402637  0.9854060068694109  0.1662393920470810   T   T   T
  0.2173353404479868  0.4002598493395217  0.1726567285220147   T   T   T
  0.7172312269173649  0.9012417218917929  0.1731332443244404   T   T   T
  0.0731378461845233  0.6890425521495991  0.1728226914214344   T   T   T
  0.5747840487419291  0.1994603442828140  0.1698732139910931   T   T   T
  0.0032411262570783  0.3354844332626095  0.1676736409243962   T   T   T
  0.5023852827181147  0.8419902368971934  0.1672022186231172   T   T   T
  0.3603344352441856  0.1221968247093491  0.1667365068141974   T   T   T
  0.8608487586410812  0.6213692747718722  0.1699409247831430   T   T   T
  0.2903252459676745  0.7564516919336445  0.1731687596741726   T   T   T
  0.7904120436548924  0.2569941718172797  0.1730980601234083   T   T   T
  0.1476212405816001  0.0558478987884250  0.1673317076397249   T   T   T
  0.6469039684018592  0.5565946118446118  0.1678509785660055   T   T   T
  0.2604723349569299  0.6439707314641709  0.2764907716785044   T   T   T
  0.7605153827203766  0.1444000820177649  0.2763823600101906   T   T   T
  0.1906458768663572  0.2887829293075997  0.2767036547669039   T   T   T
  0.6905865460758905  0.7888009719121851  0.2766756430465738   T   T   T
  0.0470710673950895  0.5720917015343904  0.2768052939101011   T   T   T
  0.5469466323499362  0.0722997186850929  0.1814687556502778   T   T   T
  0.4063701887138203  0.3564716838247184  0.1789589653511287   T   T   T
  0.9062897068935920  0.8566888845260968  0.1791098222284516   T   T   T
  0.4753835023076637  0.7121928446593702  0.1790019946690118   T   T   T
  0.9753010632734328  0.2100651585954236  0.1791838816556026   T   T   T
  0.3343110898149082  0.0000162920704897  0.2767350590940076   T   T   T
  0.8342697248627591  0.4999968372290216  0.2767619014982593   T   T   T
  0.1188856509002077  0.9319731873209525  0.1791283334595821   T   T   T
  0.6188607770621886  0.4319701358116572  0.1791581660002216   T   T   T
  0.3808618594760119  0.5685916837115224  0.2291882522773968   T   T   T
  0.8800053321114198  0.0684796420835147  0.2287977266989711   T   T   T
  0.1660996457523616  0.4983486418236047  0.2222198196816636   T   T   T
  0.6667971726306622  0.0011537479055631  0.2259293079884540   T   T   T
  0.0258220430862236  0.7857663043061867  0.2295193105785663   T   T   T
  0.5248393551418147  0.2853175881215926  0.2332530095342515   T   T   T
  0.0946155063241890  0.1443506777924880  0.2292201422992708   T   T   T
  0.5944522290233512  0.6439761057805835  0.2294697925627394   T   T   T
  0.4516674654470437  0.9257191873633067  0.2278473678833306   T   T   T
  0.9524932201119293  0.4275153590333142  0.2242991165955689   T   T   T
  0.3111189245192708  0.2121774518365470  0.2246468665439079   T   T   T
  0.8104274089575663  0.7131255390541640  0.2247970703779728   T   T   T
  0.2394287143447688  0.8563002696952553  0.2244171032484266   T   T   T
  0.7395988967262358  0.3578152856705916  0.2239719618564505   T   T   T
 
