m1CONTCARsupper                         
   1.00000000000000     
    32.4035987853999998    0.0000000000000000    0.0000000000000000
    -0.0003437759000000   28.0620994547000002    0.0000000000000000
     0.0000000000000000    0.0000000000000000   18.4095001220999990
   S    Cu   P    In
   168    28    56    28
Direct
  0.0150351169258032  0.9319172692388350  0.1729999754219320
  0.0473523077674162  0.7153248863791394  0.1694054437770981
  0.1921087482048422  0.8594548031285214  0.1731276532377364
  0.0838050508480283  0.5020572634118176  0.1557442636082930
  0.2276453091525233  0.6409395629249947  0.1729063548434407
  0.3674761537943003  0.7854539936191145  0.1701684763950792
  0.1299325690648223  0.2804989284028118  0.1897108306053920
  0.2651612922180309  0.4295834249005037  0.1732631820106433
  0.4125569910357325  0.5787982797381739  0.1770447956604541
  0.1571928054731608  0.0719338935348811  0.1789843501392716
  0.3011856431174777  0.2167796115458716  0.1900998419925681
  0.4387850286045663  0.3580394597094329  0.1795974666468633
  0.3306474760115488  0.0042871553957397  0.1671004865859361
  0.4808671988896129  0.1461844972682378  0.2062071290279206
  0.0761161286033529  0.8306023222655506  0.1652647094036863
  0.2186365520394159  0.9726389290291750  0.1728999142215705
  0.1161268369718815  0.6157408701277698  0.1657822954609847
  0.2579749967061378  0.7592050282133715  0.1606232507894852
  0.3983082033358014  0.9061616690396364  0.1886685776903887
  0.0029436505991241  0.2678970159552209  0.1964016339467453
  0.1545695680148628  0.3972658215521422  0.1704332997277870
  0.2941500189272817  0.5432315226429513  0.1704224435695613
  0.4381290817625704  0.6961985512919584  0.1716829593334532
  0.0434134920695867  0.0473704278344297  0.1709276607968134
  0.1885024750931911  0.1892486782100653  0.1711024624544127
  0.3318007038385445  0.3302441218577661  0.1846963609910978
  0.4800593793765224  0.4740866187357260  0.1823432022766260
  0.3612979252292874  0.1195983189654604  0.1790116964133023
  0.1174183946315717  0.9426056315866909  0.1845286490626055
  0.0121257609134357  0.5895539629507839  0.1700726145983913
  0.1567698649571251  0.7277106520177652  0.1688448673607369
  0.2984987296086406  0.8757719635734568  0.1706875724736022
  0.0519843219003442  0.3672368513506599  0.1775140739920588
  0.1918369898011952  0.5173790660607853  0.1813478802028846
  0.3368211104160751  0.6614222501752612  0.1715693026425045
  0.4821603917679185  0.8087795460958236  0.1668240180234127
  0.0830924824431793  0.1622352198388715  0.1721522712186792
  0.2338013342498500  0.3055443368430550  0.1698622678954511
  0.3800002661908683  0.4521852664380356  0.1741320110372441
  0.2606374647824292  0.0963403975370692  0.1787356851449432
  0.4088283565425723  0.2330257287477165  0.1937011881244950
  0.4438829889614519  0.0168182113326831  0.1917910549550980
  0.1397743604772064  0.8746923780090395  0.3578246369748068
  0.0316670501181677  0.5270974215626831  0.3536659793818057
  0.1749643605843273  0.6622235242003341  0.3588387208850370
  0.3140534321800081  0.8022796231233648  0.3510210282381845
  0.4524799104644608  0.9519698826668904  0.3758684896578294
  0.0670185965413995  0.3088977562904401  0.3698965770427844
  0.2037446455821119  0.4497111757614201  0.3582483951043641
  0.3527218440759902  0.5882218559818742  0.3556192810733307
  0.4920088136153309  0.7355857409621631  0.3507291304118720
  0.0969949236120268  0.0976502940689620  0.3614910827079472
  0.2368977915518106  0.2371997175238879  0.3652529358228458
  0.3811949584452579  0.3905312738627496  0.3827478445036727
  0.2742567427967403  0.0223216992891647  0.3699963687744504
  0.4179134465212918  0.1632768529459979  0.3756092062894286
  0.0228991172770344  0.8580728042760453  0.3435382199890213
  0.1623459260495521  0.9948036534552035  0.3648980763609281
  0.0542691606888818  0.6419734508706760  0.3599391861838507
  0.1979802849227210  0.7797618171518651  0.3521168928664163
  0.3367792362993313  0.9204402381091459  0.3560637793664305
  0.0859885060221168  0.4263620131336703  0.3541056855645489
  0.2337987079008957  0.5664020298019200  0.3525648130871785
  0.3763920049336246  0.7079182848200010  0.3541794484688638
  0.1230289021756231  0.2092092740218580  0.3696488881603963
  0.2695609971167766  0.3535580637815864  0.3640131329599045
  0.4145524579870959  0.5058225329012292  0.3521188642099383
  0.3029399079081106  0.1398228375543628  0.3729369739334085
  0.4435084116437343  0.2808219779410905  0.3798124536568434
  0.4874532348964137  0.0691442304923442  0.3868794648053059
  0.0616353263604885  0.9760975819204532  0.3579497476624675
  0.0924343457188838  0.7688460323681580  0.3490145356027073
  0.2338021580304391  0.9049784151627587  0.3640144108671931
  0.1310296617944246  0.5541856521128989  0.3591816219573340
  0.2774504966253951  0.6945908881371857  0.3575792665639926
  0.4105717195960006  0.8368794992857911  0.3599261856245474
  0.0224844356245209  0.1955742917797712  0.3757740925996617
  0.1668360592072531  0.3433246028373809  0.3602516223153063
  0.3032340205093221  0.4874063597775712  0.3646184100948670
  0.4540516562087819  0.6343106022657621  0.3546151624572628
  0.1967558905143732  0.1261115423640936  0.3635216297217769
  0.3412882198101959  0.2697833663117461  0.3807105672642229
  0.4853765153105999  0.4187353837408227  0.3810892904365167
  0.3790624686937510  0.0546025175467611  0.3625099654341528
  0.5142801002762486  0.9304166774163336  0.2049121864424347
  0.5533297431499276  0.7181510812891084  0.1676961448306554
  0.6952130582635001  0.8660735153289606  0.1761710845334079
  0.5917933863457212  0.5044281193244703  0.2098285854044599
  0.7197836812343054  0.6495233592747393  0.1676306157796066
  0.8675598997123450  0.7973913063116561  0.1737246662190045
  0.6229289730405805  0.2879216403012664  0.2022959673040065
  0.7681812892225146  0.4324685768125056  0.1872786211841662
  0.9050790716230080  0.5755247353316006  0.1775826519584126
  0.6555818270512357  0.0725044495127411  0.1977662904993126
  0.8049255269725276  0.2124467506093844  0.1889253747155358
  0.9456470445746565  0.3564903089835444  0.1797716731561897
  0.8375694200217862  0.0036991981800785  0.1768567819230845
  0.9852128220178988  0.1506734094818842  0.1863027141345586
  0.5758716787506488  0.8391442715218368  0.1813276747533427
  0.7191756741354579  0.9837042360634904  0.1895807602583535
  0.6132236562570995  0.6204310911686647  0.1904133480982648
  0.7541349513800186  0.7612563508800297  0.1698116749139521
  0.8997261148466060  0.9141145348383362  0.1896657024579240
  0.5187858886963406  0.2539748167880965  0.2023835633160054
  0.6503839920308843  0.4048154203979104  0.1925427331997004
  0.7943093265878650  0.5428685683801058  0.1755680770142473
  0.9419713857835960  0.6913562018319921  0.1790470147342014
  0.5454302970930531  0.0448135574966334  0.1967371058657873
  0.6865344943958908  0.1835942657492039  0.1873043638053553
  0.8271483366267347  0.3333325958602156  0.1927256455221860
  0.9712329118565889  0.4703944546914781  0.1725841647919068
  0.8679860695677214  0.1222169720887245  0.1836922691848723
  0.6172318148804592  0.9432167382266121  0.1933146662929541
  0.5121157233831523  0.5824903335622036  0.1903660811146889
  0.6517001473029476  0.7365961875511269  0.1772910277012291
  0.8002504044529650  0.8812763972395325  0.1889898708136405
  0.5548264825502879  0.3850340541488004  0.1843873548910648
  0.6898318137263602  0.5171394570225915  0.1741231871747899
  0.8402876918901264  0.6681141826810871  0.1829400376580149
  0.9689168281624112  0.8015152276157061  0.1714237484867410
  0.5825263049480295  0.1637205255468724  0.1976327107373403
  0.7294696717299101  0.2999125854758692  0.1786523496095484
  0.8710077212744937  0.4474690257623572  0.1725160254005222
  0.7640689260131357  0.0885801772154774  0.1848928463666905
  0.9062592962547500  0.2329664701890366  0.1851214079631913
  0.9429873798228144  0.0224365098268533  0.1827817399695643
  0.6294411546387461  0.8825124249473767  0.3632009028539008
  0.5297640237988063  0.5262529131551528  0.3807493640397513
  0.6743541211706185  0.6636434806241526  0.3601251658352920
  0.8138204686851868  0.8123970902373807  0.3649756701755891
  0.9618930319408474  0.9483708891627546  0.3621735534286702
  0.5638181819125980  0.3139897210536939  0.3836094331961037
  0.7066767949787239  0.4539098076335896  0.3690618348007347
  0.8555278677391631  0.5916685556744221  0.3613783546554042
  0.9921511273986269  0.7479640770806208  0.3713907025169164
  0.5972886736593207  0.0944509066845106  0.3800732560582803
  0.7454678218469086  0.2280017224988428  0.3721663934309479
  0.8866169226639632  0.3813299231738146  0.3631647378737540
  0.7769542885180349  0.0251094308929132  0.3700996602568288
  0.9221135626138596  0.1636691128178369  0.3791994448598483
  0.5159888637157264  0.8533167066221546  0.3656431671688585
  0.6624913971426626  0.9989476046667748  0.3729273462350232
  0.5560248899533696  0.6462189656870863  0.3680026719757180
  0.6968342817440750  0.7825793095928741  0.3578239535572076
  0.8423532137240930  0.9298987894520261  0.3729882096279910
  0.6001852954861678  0.4280201504228561  0.3749649965192497
  0.7332724627087046  0.5683745875717435  0.3595872017595301
  0.8727314910454526  0.7136862467636792  0.3629438312841230
  0.6320134026616950  0.2081162530128293  0.3934582937152349
  0.7669958325708592  0.3503232588963791  0.3707816870160382
  0.9184935133434613  0.4992628800141342  0.3588658565737057
  0.8096006731673983  0.1379020330419871  0.3719350210232965
  0.9456496718305112  0.2801100203105436  0.3821487053244108
  0.9835276274849196  0.0652592864249422  0.3686216993731311
  0.5547957846344636  0.9805590423104403  0.3850092632482136
  0.5931702194572043  0.7732449310557926  0.3564566152213133
  0.7315253098512374  0.9177008455516223  0.3700598449325407
  0.6328171764025664  0.5582568863292676  0.3806880009305070
  0.7759273315868950  0.6951734131372176  0.3592646365253594
  0.9131042576601798  0.8398539476342735  0.3700525713344154
  0.5199958227822874  0.1988430445869384  0.3950172383413027
  0.6698294968208653  0.3383817437011007  0.3785332246076774
  0.8094275390969984  0.4791803953632684  0.3618276783905156
  0.9538326908068904  0.6264969276614555  0.3528348269636039
  0.7013631447543313  0.1237207647659754  0.3774301429811362
  0.8435413970590716  0.2662831857102617  0.3709588687936906
  0.9905965291529200  0.4120230380305905  0.3551019837513393
  0.8781203574768902  0.0538052747081709  0.3672335863644386
  0.0788920986029341  0.9009524224904067  0.3224225435436976
  0.1090761539142074  0.6884932203395204  0.3308124652933195
  0.2504222359187647  0.8294893563048581  0.3501259468875787
  0.3896445973378112  0.9795165609152826  0.3361801243151726
 -0.0023457132399382  0.3338867478837733  0.3576730747921597
  0.1366134056482926  0.4784154996842521  0.3469213594622679
  0.2920209190738521  0.6181496077783160  0.3406275809488821
  0.4309631651048722  0.7657339829746768  0.3418518966454977
  0.0304821197728765  0.1202887727791720  0.3383306543351167
  0.1708075120249299  0.2646201049319863  0.3593211259883012
  0.3180514129493885  0.4083399754289317  0.3417888852757833
  0.4684157860433280  0.5529167980485643  0.3539226092103354
  0.2097245207260763  0.0485748724942170  0.3590802347902032
  0.3547507229294126  0.1913637932665046  0.3643204253056121
  0.5636617158458386  0.9088536942441535  0.3387710276510469
  0.6109770583200391  0.6940070483985005  0.3523278314775999
  0.7477592364242478  0.8421746180054754  0.3375754376811449
  0.8957235944308140  0.9749758075877614  0.3509869655358408
  0.5013960764143162  0.3328680781465653  0.2004086441563914
  0.6445178472795070  0.4814762849671532  0.3184611811380114
  0.7891494172364094  0.6136791904348946  0.3482754960347854
  0.9278250727094068  0.7618428514750293  0.3415670003970792
  0.5317653469599483  0.1244896793575613  0.3602339292617194
  0.6823245558048628  0.2596657689503406  0.3655979578435704
  0.8200003511425188  0.4064111373876649  0.3563855983944474
  0.9695710662022582  0.5524881902356602  0.3318914097992277
  0.7121671050848806  0.0480204916788567  0.3405133988003742
  0.8600994438968762  0.1914120903175802  0.3554136314179148
  0.0012782839793617 -0.0007878748343946  0.2054987039256431
  0.0306615883528631  0.7837695061888743  0.1936467151997413
  0.1769377045093628  0.9255697381512304  0.2090761184207442
  0.0687605579854125  0.5719819088095862  0.1958326171699170
  0.2148319604998101  0.7099467133674778  0.1960089557918410
  0.3536901501711349  0.8547191970783447  0.2008386271929622
  0.1109247831732306  0.3500317715662824  0.2047664457406814
  0.2500538939089814  0.4960620681547890  0.2082078858643789
  0.3962754314443568  0.6438934908491539  0.2020943925292687
  0.1422439720865025  0.1445513979472746  0.2067648059205250
  0.2870684796115027  0.2826537488871877  0.2109864845125530
  0.4341711228123422  0.4309161222255996  0.2163403935598173
  0.3175365460342499  0.0735510415270472  0.2055099041792119
  0.4680247817651337  0.2158850139233088  0.2317793814830588
  0.0000060765811810  0.0006209600016542  0.3297155963164728
  0.0338519523935508  0.7886391166551969  0.3210065189954924
  0.1786618293082507  0.9255737185143261  0.3266797744204056
  0.0731676343510261  0.5761820907750143  0.3208726251459978
  0.2168489086155704  0.7132348338212386  0.3200439184521567
  0.3535970810208842  0.8539340621643891  0.3178723632724811
  0.1079361236399899  0.3580866666824700  0.3286850173514392
  0.2473772369731133  0.4993537376973528  0.3266480332845298
  0.3937565616285369  0.6428730062156786  0.3236860673516162
  0.1401323192480916  0.1449189044596998  0.3283843685918174
  0.2853263926434833  0.2848412492259895  0.3330557842628932
  0.4279069503758266  0.4341054955338411  0.3408056562507222
  0.3188191006605632  0.0725925288907104  0.3328118727599599
  0.4622553496632804  0.2150314595616371  0.3528219616384776
  0.5007221082859771 -0.0017693067344098  0.2294466674081702
  0.5369568768457821  0.7857880192548510  0.2047685629893880
  0.6774258762375575  0.9303000581467983  0.2169942281066805
  0.5716489667349687  0.5737087647425745  0.2247767263143167
  0.7090981087770497  0.7155842404526003  0.2024832208330855
  0.8572663381941318  0.8626966157999109  0.2148539489395105
  0.6082619701142005  0.3561830643628428  0.2233285303751900
  0.7481195978339875  0.4980555405169066  0.2060793047835870
  0.8976143613748386  0.6436693846262604  0.2106097358916262
  0.6397897322884215  0.1416850769683564  0.2280670682744444
  0.7867729701438104  0.2824597107734216  0.2132349854615291
  0.9269008487109246  0.4254540063681082  0.2030006936973778
  0.8229742801704957  0.0722154604805245  0.2085621783984609
  0.9632813093066501  0.2133269057727301  0.2211578964578002
  0.4965656178802481  0.0015278445092245  0.3458841753128292
  0.5333739877103623  0.7862990307024482  0.3267948505657090
  0.6727334964371924  0.9300361987582507  0.3349164502720347
  0.5759796119702872  0.5783017094445861  0.3493241736603712
  0.7155119258480357  0.7128360844156130  0.3250299559854128
  0.8580204937026750  0.8622354662290630  0.3365797697095950
  0.6086105230093320  0.3578789410406982  0.3465503545950877
  0.7481474031464895  0.4952798189899710  0.3254736746470353
  0.8947502734343422  0.6469296514347415  0.3262721124871400
  0.6419025153647464  0.1403057831580544  0.3478589025173789
  0.7854585847124245  0.2806161564748049  0.3372917927593032
  0.9308432852220521  0.4308136391725462  0.3272936589353673
  0.8231860818218408  0.0716852687176148  0.3324130381501542
  0.9642328944687226  0.2168142238944566  0.3466634470147791
  0.0016812966250351  0.6664974259260128  0.2587163135000924
  0.1410019057884180  0.8083110568418446  0.2359133768132660
  0.2827301745932949  0.9501896884009232  0.2496175753717742
  0.0396237760212407  0.4475729906473176  0.2402523422918116
  0.1759308825450588  0.5954829865540819  0.2535189101815011
  0.3202902650023575  0.7337594087488782  0.2525616409241922
  0.4604043242023707  0.8730549847899718  0.2580510505487735
  0.0709096736801389  0.2341140484374414  0.2564306093925436
  0.2180801279311438  0.3795684569424581  0.2573453967758769
  0.3604634508595825  0.5221978351354396  0.2505192082612273
  0.1079196471951420  0.0219106853126807  0.2543927372380222
  0.2478185387898954  0.1663907604900430  0.2679205571295664
  0.3933346831813869  0.3083816260218926  0.2740036969253253
  0.4257969520124811  0.0957839491811045  0.2645403995996851
  0.5016097116637094  0.6671108650405257  0.2423997655465220
  0.6443224812982692  0.8137794498109061  0.2535545672256458
  0.7844753684145607  0.9593193101385595  0.2637484067030467
  0.5341280962965519  0.4554545807727120  0.2827696631924726
  0.6799375474226893  0.5917535117827863  0.2576887079314755
  0.8203614879666287  0.7449366179618880  0.2581812974571870
  0.9646217740575265  0.8781266476929180  0.2503345884782734
  0.5811312836575462  0.2418941665867201  0.2923517872528856
  0.7134748423788091  0.3763292190216111  0.2634400887493637
  0.8548853017917455  0.5204099128717733  0.2600286619471514
  0.6056498365548523  0.0202251096930329  0.2768105888199023
  0.7525431174337998  0.1627077411847456  0.2653830769778311
  0.8943398489820260  0.3078995869091118  0.2669284958248404
  0.9294800929963728  0.0973075523850255  0.2684238198101952
 
 -0.18383887E-02 -0.50385770E-02  0.15926424E-02
  0.21262235E-02  0.50842590E-03 -0.26533944E-02
 -0.21303883E-02 -0.46852004E-03  0.42838933E-04
  0.24987540E-02 -0.14581133E-02 -0.20117068E-03
 -0.29123322E-02 -0.44622142E-02 -0.40687465E-02
 -0.93615622E-03 -0.28341350E-02 -0.86700902E-04
 -0.62241786E-02 -0.29526259E-02  0.10594181E-02
 -0.28117212E-02 -0.25303654E-02  0.25313424E-02
 -0.86712702E-03  0.48586506E-02  0.83592801E-03
 -0.47850430E-02 -0.32411460E-02 -0.51528050E-02
 -0.31491289E-02 -0.40620008E-02  0.16557593E-02
  0.19309680E-02 -0.18326831E-02  0.20711615E-02
  0.38013617E-02  0.70449493E-03 -0.82249590E-03
  0.33311209E-02 -0.20925012E-03 -0.51403241E-02
  0.12346807E-02 -0.13795041E-02  0.21028660E-02
 -0.19645718E-02  0.28401225E-02  0.36310852E-02
  0.36536882E-02  0.26552963E-02  0.13515638E-02
 -0.20297965E-03  0.12446527E-02  0.83222139E-03
  0.23789750E-02  0.60315785E-02  0.25936327E-02
  0.36916706E-02  0.14741797E-02  0.70766849E-02
 -0.16233701E-02  0.19519766E-02 -0.63117082E-03
  0.25875082E-02 -0.10377731E-04 -0.63472733E-03
  0.49526863E-02 -0.27114791E-02  0.17535977E-02
 -0.25595362E-03  0.14882475E-02  0.52877149E-03
 -0.94179155E-03  0.21969334E-02  0.27154180E-02
 -0.27508328E-03  0.79042517E-03  0.10763112E-02
 -0.29902954E-03  0.15547552E-02 -0.23368560E-02
 -0.18934587E-02 -0.81834932E-03  0.33559806E-02
  0.24997763E-02 -0.10521876E-02 -0.14817744E-02
  0.57487824E-04 -0.54010239E-02 -0.51567794E-03
 -0.62942558E-03  0.17830076E-02  0.16451039E-02
  0.12618057E-02 -0.22669571E-02  0.34760052E-02
 -0.10487539E-02  0.35027402E-02  0.14380713E-02
 -0.34530503E-03  0.27138632E-03 -0.18251333E-02
  0.16115832E-02  0.19123360E-02 -0.24370510E-02
  0.51960073E-03 -0.12885220E-03 -0.38388091E-02
  0.32326401E-02 -0.20741549E-03 -0.21266962E-02
 -0.39833882E-03 -0.15304913E-02 -0.12311667E-02
 -0.92215168E-03 -0.10751317E-02  0.54619588E-03
  0.18870429E-02  0.22952805E-02 -0.20263033E-02
  0.23566574E-03  0.28878775E-02  0.22221354E-03
 -0.25224652E-02  0.21970064E-02  0.27507310E-02
  0.52844251E-03 -0.10822701E-02 -0.19761451E-03
 -0.20796481E-02 -0.12520086E-02 -0.20017526E-02
  0.27163994E-02  0.70767621E-03 -0.96230662E-03
 -0.54457130E-03 -0.11296917E-02  0.25800359E-02
 -0.10543288E-02  0.37282172E-02 -0.34602717E-02
 -0.29724746E-02 -0.22969294E-02  0.26881623E-02
 -0.10631703E-04  0.10625157E-02  0.18227770E-02
  0.23403071E-02 -0.30802469E-03 -0.13530765E-02
  0.58901579E-02 -0.55255373E-03 -0.69612715E-02
 -0.85604411E-03  0.28348412E-03 -0.46695097E-02
  0.13878366E-02  0.13006352E-02  0.48514851E-02
  0.26220562E-02 -0.31066058E-02 -0.43229596E-03
  0.38353817E-02 -0.42802357E-02  0.18521153E-03
 -0.62057132E-03 -0.34617313E-02  0.58037049E-02
  0.46745410E-03 -0.13825711E-02  0.30393293E-03
  0.34796210E-02  0.21878650E-02 -0.66329164E-02
  0.91270324E-04 -0.18163727E-03 -0.16765983E-03
 -0.30778620E-02  0.13698846E-02  0.41168953E-02
  0.18643302E-02 -0.15016542E-02 -0.15887828E-02
 -0.11207215E-02 -0.48559032E-03 -0.22306222E-03
 -0.43650788E-02  0.17577175E-02 -0.24660759E-03
 -0.43852150E-03  0.26184137E-02 -0.50505159E-02
  0.18934712E-02  0.11105669E-02  0.24126421E-02
 -0.15314542E-02  0.16680606E-02  0.34384459E-02
 -0.31527200E-03 -0.33758888E-02  0.14930652E-02
  0.48403111E-03  0.58087671E-03  0.44393121E-02
  0.16640251E-02  0.13869070E-02 -0.30598421E-02
 -0.26546419E-03  0.47977290E-02 -0.50716530E-03
  0.53444627E-03 -0.41817155E-02  0.20204317E-02
  0.13380902E-02 -0.16910814E-02 -0.97589130E-03
  0.38597995E-02  0.25778803E-02  0.25552316E-02
  0.10094939E-02 -0.21486919E-02  0.63052166E-03
 -0.81047689E-02  0.16380180E-02 -0.29830307E-02
  0.90236565E-03 -0.19767568E-02 -0.15832980E-02
 -0.11306062E-02  0.54053995E-02 -0.58441896E-03
 -0.24640845E-02 -0.73030709E-03  0.34784447E-02
  0.57616225E-03  0.75147630E-02 -0.41855643E-03
 -0.10342379E-02 -0.45134105E-02 -0.26221407E-02
  0.60151469E-03 -0.24085233E-02 -0.25872461E-02
  0.82690423E-04  0.12094514E-03  0.39234405E-02
 -0.29762430E-02  0.59123456E-03  0.42854178E-03
  0.34475940E-03  0.31898729E-02 -0.16816395E-03
  0.12238117E-02  0.97913339E-03  0.29559032E-02
 -0.14092569E-02 -0.23405171E-02  0.22549707E-03
 -0.22802375E-02  0.17283123E-02 -0.72121504E-03
  0.55287293E-03  0.18227110E-02 -0.33193794E-02
  0.58110422E-02 -0.24279188E-02 -0.28083364E-03
 -0.37378885E-02  0.20386991E-02  0.17577465E-02
  0.23864552E-02 -0.36452784E-03  0.66062371E-02
  0.32876092E-02 -0.53935549E-02  0.10003105E-02
  0.25292993E-02  0.11253662E-02  0.19642685E-03
  0.10140323E-02  0.37087277E-02 -0.10952598E-02
 -0.29215256E-03 -0.58471508E-03  0.21901240E-02
  0.11913612E-02 -0.71072384E-03 -0.25317058E-02
 -0.54736590E-02  0.76397344E-03 -0.40377925E-02
  0.23595014E-02  0.39895330E-02 -0.14283563E-02
 -0.19827377E-02 -0.26157313E-02  0.18238921E-02
 -0.34344161E-02  0.45486233E-02 -0.62081114E-02
  0.54728656E-03 -0.20731883E-04  0.48135901E-02
  0.44245971E-02  0.12396746E-02 -0.19198635E-03
  0.21921538E-02  0.53260508E-03 -0.19695758E-02
 -0.21216536E-02 -0.44465076E-02  0.32008672E-02
  0.27468043E-02  0.38565521E-02  0.20350027E-02
  0.26718472E-02  0.19931530E-02 -0.26367935E-02
  0.22891573E-02  0.19254986E-02  0.28709622E-02
 -0.63746019E-03 -0.18655637E-02 -0.90491968E-03
  0.65349384E-03 -0.85781033E-03 -0.12349078E-03
  0.93169765E-03 -0.98634869E-04 -0.46522212E-02
  0.63844743E-02  0.29743312E-02  0.49341537E-03
 -0.91910573E-03  0.27424363E-02  0.11270697E-02
 -0.28855439E-03  0.87846978E-03 -0.58477057E-03
  0.34738112E-02 -0.36163085E-02 -0.10015810E-02
 -0.42248188E-02  0.42122552E-02 -0.42856459E-03
 -0.28003504E-02  0.50688950E-02 -0.52271841E-03
 -0.35349112E-02 -0.11650265E-02 -0.49793628E-02
  0.25538880E-02 -0.13068307E-02  0.60609036E-03
 -0.25765606E-02  0.40599157E-03  0.36607664E-02
 -0.44381276E-02 -0.14421531E-02 -0.16930816E-02
 -0.50615954E-02  0.15779728E-02  0.36367465E-03
 -0.18059266E-02  0.49934520E-02 -0.18955885E-02
 -0.33685260E-03 -0.89642995E-03 -0.16781693E-02
  0.12144835E-02 -0.11426219E-02 -0.94128594E-04
  0.19648317E-02 -0.34438241E-02  0.11604702E-02
  0.14111075E-02  0.39727055E-03  0.22165010E-03
  0.52300148E-02 -0.30075698E-03 -0.10984957E-02
  0.24436561E-02 -0.16191417E-02 -0.37284810E-02
 -0.11453242E-02  0.20997807E-02 -0.21944377E-02
  0.25838131E-02  0.35493771E-02 -0.27925484E-02
 -0.72836959E-03  0.53415759E-03 -0.28068923E-02
  0.37185198E-02  0.40911630E-02  0.50785718E-02
  0.53710656E-02  0.25222968E-02  0.14516858E-02
 -0.30791116E-02 -0.44494578E-02  0.40638176E-02
  0.40918245E-02 -0.15791467E-02  0.20247976E-02
 -0.24789317E-02  0.18774302E-02  0.41273687E-02
 -0.28864783E-02 -0.38489829E-02  0.30999568E-02
  0.13686209E-02 -0.61538326E-02 -0.19523726E-02
  0.50628599E-02  0.14823286E-02  0.50371410E-02
  0.21641193E-02  0.28299682E-03 -0.10791730E-02
  0.77649205E-03  0.40178619E-03 -0.54565961E-03
  0.82562928E-03 -0.47450045E-02 -0.17549887E-02
 -0.40872346E-02 -0.87859795E-03  0.43844895E-03
  0.35387335E-02 -0.30531569E-02 -0.14349591E-02
 -0.40725732E-03  0.99336626E-03  0.83127118E-03
  0.69916109E-02 -0.16899677E-02 -0.23974261E-02
 -0.15119976E-03  0.37039315E-02  0.14592568E-02
  0.79573118E-03 -0.20384158E-02 -0.72023194E-03
  0.15048871E-02  0.12109735E-03  0.12391105E-02
  0.57379397E-03  0.13524903E-02 -0.45931409E-02
 -0.36253420E-03 -0.24123529E-02 -0.19626936E-02
  0.32814862E-02 -0.24088297E-02 -0.51358866E-02
 -0.12574044E-02 -0.19658172E-02 -0.11332640E-02
 -0.16731527E-02  0.18495415E-02 -0.28885101E-02
 -0.33524258E-02 -0.36407136E-03  0.11745388E-02
  0.17752310E-02 -0.19886917E-02  0.36981647E-02
 -0.13998552E-02 -0.19741515E-02 -0.57040399E-03
  0.94329272E-03  0.46729722E-02 -0.82695147E-03
 -0.71964302E-03 -0.29340135E-03 -0.12420570E-02
  0.14015253E-03 -0.82050527E-02  0.12094848E-02
  0.26260012E-02  0.14233674E-04 -0.25631918E-02
 -0.48930719E-02 -0.20715028E-02 -0.79203791E-03
 -0.17285515E-02 -0.10935505E-03  0.24549532E-02
  0.80938385E-03  0.48610248E-02 -0.13298443E-02
 -0.53260444E-03  0.25614389E-02  0.98517364E-03
 -0.39438239E-02  0.16443711E-02  0.36463134E-02
  0.66615797E-03  0.50508655E-03  0.15125396E-02
 -0.26326184E-02  0.11634551E-02 -0.42119318E-03
 -0.19031859E-02 -0.22376708E-02  0.26212300E-02
 -0.52688122E-03 -0.22891424E-02 -0.15226974E-02
 -0.41088913E-03 -0.10983980E-02 -0.41168480E-02
  0.99253978E-04  0.76219271E-03  0.55273505E-04
  0.65317994E-03  0.33238217E-02  0.64828507E-03
  0.43665508E-03  0.13209883E-03 -0.12605129E-02
  0.34986976E-03 -0.15018819E-02  0.25133026E-05
 -0.40527978E-02  0.29928006E-02 -0.17203089E-02
  0.56556177E-03  0.79990621E-03  0.37267974E-03
 -0.26859264E-02 -0.40629687E-02  0.46222399E-03
  0.28592416E-02 -0.10225426E-02  0.49822718E-02
  0.18112421E-02  0.42692778E-03 -0.29725282E-02
  0.17169730E-02  0.36324020E-03  0.20371640E-03
  0.13655574E-02  0.13746986E-02 -0.90669198E-03
 -0.11405533E-02  0.19793052E-03  0.30017936E-02
 -0.22867331E-02 -0.38577114E-03  0.96824962E-03
  0.96772315E-03 -0.23927997E-02 -0.99821648E-03
 -0.18679798E-02  0.44668820E-03  0.87524738E-04
  0.21239377E-02 -0.14788009E-02 -0.74996663E-03
 -0.10922434E-02  0.47255991E-03  0.26315720E-03
 -0.56484183E-03 -0.72207550E-04 -0.13113377E-02
 -0.10915598E-02 -0.10963009E-02 -0.21722018E-02
  0.20644844E-02 -0.11694790E-02  0.21884436E-02
 -0.54882094E-03 -0.34463227E-03 -0.45249257E-02
 -0.13730051E-02 -0.74375663E-03 -0.15769959E-03
  0.21504536E-02  0.16720783E-02 -0.20115627E-02
  0.18331735E-02  0.21201176E-02  0.31221591E-02
  0.48310078E-02  0.12163026E-02  0.31895958E-03
 -0.20536324E-02  0.11442799E-02 -0.55698797E-03
 -0.52160582E-02 -0.11536480E-02 -0.11322460E-02
 -0.41308945E-02  0.19887817E-02  0.80980055E-04
  0.61888495E-03 -0.45747860E-02 -0.24214367E-02
  0.16102123E-02 -0.18882222E-03  0.43815981E-03
 -0.22141512E-03  0.40816504E-02 -0.50785258E-02
  0.46911541E-02 -0.26059172E-02  0.21859263E-02
 -0.15656075E-02 -0.13362755E-02  0.20995480E-02
 -0.24197530E-02  0.35177877E-02  0.14978482E-02
 -0.17150590E-02  0.13304464E-02 -0.22057973E-02
  0.10462642E-03  0.34706525E-02  0.32295643E-02
  0.33037974E-02 -0.62147595E-03  0.15074671E-03
  0.29669778E-02  0.52430764E-02  0.55988090E-02
  0.26438107E-02 -0.12046703E-02  0.81181008E-02
  0.72507074E-03  0.17151156E-02 -0.25401150E-02
  0.11337928E-02  0.19316013E-02  0.31311414E-02
 -0.95691574E-03  0.56630048E-02  0.51101022E-03
  0.33070375E-03 -0.60500511E-03 -0.90082039E-03
 -0.15952588E-03  0.26641847E-02  0.31733818E-03
 -0.19534777E-02  0.43250082E-02  0.36922562E-02
  0.88815618E-03 -0.39369356E-02  0.27121009E-02
  0.26595487E-02  0.23686696E-02 -0.19674717E-02
  0.28829657E-02  0.52228539E-02 -0.36789687E-02
  0.14271813E-02  0.51015375E-02  0.39099898E-03
  0.78778308E-03 -0.10541458E-02 -0.11880056E-02
  0.84071203E-02 -0.49523403E-03 -0.13458573E-02
 -0.61477569E-03 -0.37166182E-02 -0.13928253E-02
 -0.14304720E-02 -0.34417149E-02 -0.28569741E-02
 -0.34785805E-02 -0.83147990E-03  0.27142199E-02
 -0.38775588E-02  0.22403448E-02 -0.55903429E-03
 -0.41912745E-02 -0.23421505E-02 -0.52950256E-02
 -0.62807066E-03 -0.42232823E-02  0.22945127E-02
  0.11741884E-02  0.18616338E-03 -0.23737044E-03
 -0.50781567E-03 -0.23852325E-02 -0.13736222E-02
  0.57193827E-02  0.41525599E-02 -0.22655393E-02
  0.54021300E-02  0.95379205E-03 -0.57025751E-02
 -0.12886747E-02 -0.20318228E-02  0.50402799E-02
 -0.81315891E-03  0.41863543E-02  0.42333441E-02
  0.16184820E-02  0.63554436E-03  0.40988972E-02
 -0.30968040E-02 -0.36553268E-02 -0.28773700E-03
 -0.29787429E-02 -0.69265187E-04  0.38319208E-03
 -0.59482622E-03  0.38316405E-04  0.10852457E-02
 -0.66188704E-03  0.25498969E-02 -0.18644379E-02
  0.10134556E-02  0.14234382E-02 -0.17898410E-02
  0.46541600E-03 -0.26448820E-02 -0.10412059E-02
 -0.51542072E-02  0.13519380E-02 -0.49122383E-02
 -0.11054612E-02  0.24064863E-02  0.31379452E-02
 -0.16285086E-02  0.10894498E-02  0.16752697E-02
  0.11620679E-02 -0.10335577E-02 -0.21955065E-02
  0.91316690E-03 -0.36374722E-02 -0.15451138E-02
  0.12271962E-02  0.16816264E-03  0.99168536E-03
 -0.25102168E-02  0.46835701E-04 -0.47609677E-03
  0.95975984E-03  0.33805533E-02 -0.16475021E-02
  0.20589625E-02 -0.56157415E-02  0.16105945E-03
  0.17354098E-03  0.28137109E-02 -0.51641385E-03
 -0.24539909E-02  0.32815961E-02  0.58630670E-03
 -0.30550474E-02 -0.13375603E-02  0.88420910E-03
 -0.10304879E-02  0.19797942E-03 -0.24591022E-02
  0.15000754E-03  0.18106658E-02  0.17084254E-02
  0.62208904E-03 -0.27100218E-02 -0.31511012E-03
  0.27032994E-02 -0.91551601E-03 -0.72657488E-04