site2                                   
   1.00000000000000     
     6.1236130319232416   -0.0000003290798472    0.0000000000000000
    -3.0618068017661093    5.3031984929395550    0.0000000000000000
     0.0000000000000000    0.0000000000000000   18.4095001220999990
   S    Cu   P    In
     6     1     2     1
Direct
  0.3068203835052069  0.9722513520039056  0.1783690564090045
  0.0277464771413707  0.3345679492602934  0.1783690059277383
  0.6654315770209239  0.6931770740710619  0.1783693124914741
  0.9807293679593960  0.6715341587420930  0.3629811125617026
  0.6908048893331897  0.0192733126952039  0.3629805830643961
  0.3284676909034774  0.3091971753700767  0.3629808810028375
  0.6666659799829201  0.3333311765609503  0.1963088978124494
  0.9999996370435907  0.9999994374286729  0.2118136696981376
  0.0000004348028789  0.0000011225480674  0.3342545257015566
  0.3333335313070465  0.6666673363196720  0.2843727803306891
 
  0.00000000E+00  0.00000000E+00  0.00000000E+00
  0.00000000E+00  0.00000000E+00  0.00000000E+00
  0.00000000E+00  0.00000000E+00  0.00000000E+00
  0.00000000E+00  0.00000000E+00  0.00000000E+00
  0.00000000E+00  0.00000000E+00  0.00000000E+00
  0.00000000E+00  0.00000000E+00  0.00000000E+00
  0.00000000E+00  0.00000000E+00  0.00000000E+00
  0.00000000E+00  0.00000000E+00  0.00000000E+00
  0.00000000E+00  0.00000000E+00  0.00000000E+00
  0.00000000E+00  0.00000000E+00  0.00000000E+00
