m1CONTCARsupper                         
   1.00000000000000     
    32.4035987853999998    0.0000000000000000    0.0000000000000000
    -0.0003437759000000   28.0620994547000002    0.0000000000000000
     0.0000000000000000    0.0000000000000000   18.4095001220999990
   S    Cu   P    In
   168    28    56    28
Direct
  0.0134731829446279  0.9316518821513856  0.1847132164322872
  0.0579042597559698  0.7159159773167763  0.2021620202125730
  0.1944899977250505  0.8562651712503329  0.2168945808817554
  0.0795271485157793  0.5032057801928308  0.1776865364997141
  0.2309784685768745  0.6437921207679348  0.1981161137849650
  0.3624673475982523  0.7933575856389253  0.1838440282500320
  0.1118640786735358  0.2892432613734201  0.1757476898840700
  0.2536847522040110  0.4348038149304971  0.1751650267133948
  0.4035968486561187  0.5826050186247894  0.1611363300516462
  0.1596142483046907  0.0723687975621753  0.1948781864662261
  0.2916365985645722  0.2242495027560033  0.1767549279921464
  0.4457546900711016  0.3681239045651858  0.1893322320394158
  0.3277575899873078  0.0045287529834505  0.1878343908144597
  0.4766126277882795  0.1401898028811733  0.1740663682904734
  0.0807333684599554  0.8309579157541902  0.2043282026527063
  0.2212494108533591  0.9728840311244701  0.2028575212630973
  0.1200433740204260  0.6184771507184884  0.1739091951108309
  0.2582809420473530  0.7644381351623545  0.1993400769139354
  0.4024679749182400  0.9121024002542567  0.1877730905897673
  0.0071315775619558  0.2637712647912708  0.1898282461238866
  0.1497961477836832  0.3924571361340388  0.1795608931354112
  0.2864896452991620  0.5491293378604807  0.1772877203653433
  0.4394728496485160  0.6916231304620429  0.1625598846162328
  0.0501515543915946  0.0432911855832098  0.1783781773450036
  0.1931029828713921  0.1862548454483000  0.1885347209000787
  0.3259716428784504  0.3386284682738162  0.1676390325584734
  0.4713359293519579  0.4855753515731117  0.1849911127743513
  0.3702845576076365  0.1147363730134447  0.1784144617546881
  0.1195608548186161  0.9372061664488580  0.2071401845361710
  0.0188148387459062  0.5969975263516863  0.1712572943617238
  0.1580576283816328  0.7334211210232047  0.2129670640571514
  0.3008945431457751  0.8851124396998064  0.1905692699854596
  0.0455957374192065  0.3806954085372006  0.1796249491757159
  0.1889553405737691  0.5255898254223477  0.1801604050203255
  0.3322288963024159  0.6750543952438890  0.1850698534972884
  0.4798487389001124  0.8181049111498028  0.1737478043106157
  0.0912698571696215  0.1661716393144889  0.1781830018999460
  0.2314308933414431  0.3187072944192380  0.1728408478742877
  0.3694939096609708  0.4487555458935893  0.1824642481821873
  0.2680690237987825  0.1055251606740421  0.1825074434226065
  0.4153086485386099  0.2331719016362170  0.1598267559302814
  0.4437729922427887  0.0123150416097144  0.1952469265887804
  0.1385983374008546  0.8797109101897646  0.4094258684794480
  0.0291767333141397  0.5311578414997484  0.3568328360485106
  0.1666487321330555  0.6646771697586970  0.3817867744413467
  0.3131683058805312  0.8205739223810049  0.3779452232320406
  0.4624096160972656  0.9477150243555836  0.3798245965274510
  0.0640251075502152  0.3099046155335812  0.3780094260308067
  0.2090262151613916  0.4571645091822452  0.3724233570561817
  0.3508504885061955  0.6008891964665163  0.3517111090202377
  0.4884906382853512  0.7370661486243791  0.3469464511285046
  0.0985531908813271  0.0956336369063497  0.3597540434769984
  0.2376983460840504  0.2517350683957776  0.3544447262926467
  0.3854871046684437  0.3733357601572679  0.3629940612212973
  0.2791324667504604  0.0310367215149263  0.3696548714365862
  0.4140383430795180  0.1688953419551960  0.3433163725517133
  0.0194158991917580  0.8489783346436706  0.3830576482589502
  0.1592436791545027  0.9972572972161807  0.3915611671798069
  0.0549487856499245  0.6422811884566502  0.3479128455572187
  0.1988624543812698  0.7817523444512312  0.3911554162800897
  0.3452338225241663  0.9297325086886048  0.3887310332870284
  0.0940463945913381  0.4230126177920868  0.3685656410005897
  0.2365771861638845  0.5644558040878731  0.3737275558537798
  0.3813088464557498  0.7146838205984759  0.3628704583929131
  0.1305287364362276  0.2085387459030804  0.3767665878996901
  0.2739120292981017  0.3579261422594511  0.3565491556624581
  0.4065219177654298  0.4913494609842212  0.3763030780128510
  0.3133541334690562  0.1465983950618574  0.3600607988701493
  0.4526166183527788  0.2765190146169559  0.3473619781189281
  0.4858048050194388  0.0684657177351535  0.3729708367041057
  0.0567296050201920  0.9817911029607532  0.3692910974245481
  0.0899550518369738  0.7677366209835805  0.3937199670657074
  0.2380250244314077  0.9154027809359737  0.4026336565527885
  0.1288345468247635  0.5523732969700093  0.3647993072738917
  0.2743788396272223  0.6958809431943435  0.3931388700206049
  0.4151427828992681  0.8356444895989104  0.3710210847913837
  0.0206763963935182  0.1915993269404664  0.3659422749468467
  0.1609542301962560  0.3300850636265212  0.3445142867307288
  0.3128321493499930  0.4856438803598347  0.3562047314957113
  0.4503149961348925  0.6237012874421199  0.3505465191511675
  0.1999158293846401  0.1269179769054506  0.3810689733117162
  0.3436006633470504  0.2641379844081223  0.3430654948945586
  0.4868444844295959  0.4078302509567698  0.3662740066760718
  0.3784631161544146  0.0531272821444166  0.3623262238951955
  0.5188101156784891  0.9306696624369610  0.1938682096886847
  0.5384124677308125  0.7201395871329429  0.1541386010109044
  0.6918080003941154  0.8598108208576764  0.1858145547390044
  0.5813474684040938  0.5034652360668546  0.1670291356342851
  0.7256041569632068  0.6435372139306503  0.1781853649912455
  0.8731580598491742  0.7955830220848320  0.1998358218523096
  0.6137469593006271  0.2833861997015020  0.1629733323023990
  0.7599880599141798  0.4305307362454542  0.1746795096691376
  0.9049437953292884  0.5840125292601693  0.1661901113394958
  0.6587204375122948  0.0689964799318224  0.1876654682619733
  0.7941057718966752  0.2132479627428475  0.1774353472134408
  0.9449421235343559  0.3602266642713528  0.1866914434405945
  0.8394744938348917 -0.0027161390748052  0.2110230254526922
  0.9719307668857196  0.1479332058623044  0.1702699362644065
  0.5789259260314907  0.8326692402893411  0.1723384690968835
  0.7230487150525747  0.9749184749045262  0.2014608688067816
  0.6142445877404784  0.6232687798528905  0.1688457176672519
  0.7504593983425559  0.7613928416000761  0.1833276637693126
  0.9038960071543846  0.9086638717664610  0.2112640884819950
  0.5112498105487931  0.2538015833227326  0.1809937843695568
  0.6535330870280580  0.4038382251735067  0.1749490484736980
  0.7953576497663534  0.5436033329276648  0.1757739649532357
  0.9385950515737502  0.6974871559273113  0.1773894784572675
  0.5461726781175461  0.0467414623439357  0.1902857020010573
  0.6922906305082523  0.1776192555958552  0.1785279777007165
  0.8340306112768053  0.3265533806547583  0.1814940898889123
  0.9768696885544191  0.4722355019429334  0.1820221403194481
  0.8653940545892799  0.1166048031433577  0.1840557166431847
  0.6189773511590726  0.9444071173890755  0.1902806888731364
  0.5156592542760633  0.5969337195948377  0.1659893656894798
  0.6467377721992933  0.7273385801944404  0.1755542380994417
  0.8012226922594058  0.8792271950918714  0.1989897113167345
  0.5545135018456995  0.3824765658416401  0.1690128765663313
  0.6900294026857910  0.5101300128836393  0.1840635436975792
  0.8350359217059725  0.6659618116493669  0.1800620932255667
  0.9836755850444503  0.8036651562519287  0.1939684401412779
  0.5851068934548498  0.1547870262700349  0.1909797692324875
  0.7338083347809368  0.3098154588981109  0.1846602040090424
  0.8726668792898309  0.4494826432784565  0.1697192490640265
  0.7669414415512358  0.0877683691692760  0.1953856515447158
  0.9100896414231673  0.2327029300820165  0.1965333125173097
  0.9449053190812049  0.0246910702083637  0.1734260128954945
  0.6322144518896793  0.8736397322774044  0.3645008099557608
  0.5193404251365075  0.5248197265451845  0.3508514754886149
  0.6669057412045786  0.6601254384827657  0.3569205921252538
  0.8127314483323682  0.8060867456370689  0.3924113633893925
  0.9589820678233708  0.9494320859979438  0.3687538571521684
  0.5679594305863866  0.3079430430239037  0.3591745067297543
  0.7069392338764385  0.4543451756048688  0.3601873694488548
  0.8526202070271509  0.5919692033769216  0.3564570772462845
  0.9873813937679743  0.7329300209762615  0.3735826862729544
  0.6047941044390173  0.0945154699464259  0.3785670506365896
  0.7406888240769202  0.2382013873818093  0.3647614512329709
  0.8851047125490591  0.3836329093752612  0.3688395354922512
  0.7868016221104324  0.0208173231972410  0.3929662756756267
  0.9199164656575929  0.1664117822424715  0.3632003815414561
  0.5182607029163880  0.8490517246235993  0.3588934457011266
  0.6649589043744744  0.9954109146766893  0.3886700481318486
  0.5526544352089637  0.6399399409427420  0.3589008584269414
  0.6907954784161849  0.7769433338152575  0.3623530312360955
  0.8367973163991087  0.9261098242948038  0.4033545940281591
  0.5942672458732645  0.4240752791340518  0.3473017404065820
  0.7327167945942016  0.5672489247409859  0.3642052091234145
  0.8741948701712017  0.7113569850409995  0.3627835002899612
  0.6332552463339508  0.2081349055187693  0.3693053988776800
  0.7699298846154906  0.3535903576579869  0.3683982493105911
  0.9176857850739695  0.5007965189132524  0.3548609090126005
  0.8097504796084165  0.1380794154601402  0.3874770296329038
  0.9531671387286762  0.2811296541981761  0.3818984097827433
  0.9871934526916215  0.0744188872017598  0.3633072763840901
  0.5596818534781004  0.9818489502587112  0.3849496381531720
  0.5912347303312396  0.7628630623572354  0.3573751777291224
  0.7304491002580866  0.9007348200622820  0.3783887051173475
  0.6266371432848417  0.5481180104857054  0.3578787503938486
  0.7686473732486244  0.6938004250473275  0.3595867219578760
  0.9123936523499604  0.8396553594311361  0.3960111155903361
  0.5248452760706814  0.1879850176833327  0.3620779711798477
  0.6674488431687868  0.3351532431678281  0.3508432879410788
  0.8084948031535322  0.4869296160505499  0.3650850792481902
  0.9512116283849998  0.6271909254446337  0.3600602375107830
  0.7035718349262763  0.1162178363365662  0.3661791345502589
  0.8447260590364065  0.2714929158864608  0.3727837855351914
  0.9847054686621576  0.4098119650834419  0.3684251054909219
  0.8859864847426131  0.0521678872313969  0.3775185431866392
  0.0767431872206869  0.8970476239159865  0.3607987592010498
  0.1056233121523585  0.6920382326692995  0.3598781379909787
  0.2458456033034805  0.8348447511783939  0.3722855923379041
  0.4018178110505238  0.9794423843603675  0.3565201999552242
  0.0024180650500291  0.3357094878983320  0.3565659147903040
  0.1350844373811176  0.4666847190048883  0.1971319309915099
  0.2828275969488771  0.6196720882832140  0.3572105371820346
  0.4272397838176270  0.7728190135961632  0.2093153798257668
  0.0310834817750571  0.1172276956988608  0.1989234347638126
  0.1832523198081039  0.2647970868273647  0.2078693035794273
  0.3242941206638059  0.4062330252891139  0.3471600166489790
  0.4531742148208979  0.5425846799046797  0.3333438933913394
  0.2090946818362940  0.0440772408628053  0.3709346866681341
  0.3557905335611173  0.1899443065429026  0.1709229812246379
  0.5713180262831755  0.9049119642759877  0.3533581669775757
  0.6039944232161985  0.6891261940769752  0.3355873237619392
  0.7490226700736298  0.8237504638645848  0.3411301563199614
  0.8928897637854750  0.9747035681181234  0.3649964326842897
  0.5026817198424305  0.3306876191897615  0.3450416201694972
  0.6467128741661347  0.4737414191450170  0.3232566974289241
  0.7848231361099693  0.6107492153470543  0.3564533045667702
  0.9232472442810580  0.7637130579137683  0.3471098124251315
  0.5409678733542675  0.1169003661091661  0.3479767669042836
  0.6740423798875413  0.2505057782983383  0.1872962432919360
  0.8221623371541134  0.4098170405209443  0.3309585682856767
  0.9679123292764472  0.5477439591419462  0.1723451209520074
  0.7248595035413667  0.0420054726969873  0.3659165763676912
  0.8559207641297105  0.1951372087630129  0.3674768681973199
 -0.0000482509766617  0.0010057392893939  0.2069643860805551
  0.0401139398326051  0.7821277219760809  0.2276212439449803
  0.1796629935915721  0.9254105261792482  0.2348471972314906
  0.0752146547244742  0.5759799582580623  0.2079397949696189
  0.2154698188949319  0.7124614956825547  0.2299906545012677
  0.3599474604327279  0.8631948134245729  0.2146805319569846
  0.1001055333816266  0.3577135948082272  0.2148128103022548
  0.2448334109030454  0.5004908842990424  0.2101123652726274
  0.3910445967122745  0.6521842650549924  0.2017442184935202
  0.1466398640994236  0.1391124970744819  0.2234397121097214
  0.2868563856891423  0.2928629327195227  0.2078465440171289
  0.4277401658223214  0.4350425377382694  0.2115384941975907
  0.3189920551392528  0.0720163887554396  0.2123076599988691
  0.4664251716786809  0.2081267849391560  0.2049923561929730
  0.0007310035666852  0.0039591386835833  0.3305090161692972
  0.0329777176850793  0.7810687461208976  0.3484586754212217
  0.1795339977246655  0.9267147286818265  0.3607777390068011
  0.0741885459453599  0.5739384559288655  0.3283034430122891
  0.2158620335831764  0.7137212485428114  0.3574161158326713
  0.3590964123804360  0.8626758721868193  0.3448594853139330
  0.1013878950728449  0.3573441976222557  0.3328936489131222
  0.2526757597182138  0.4981882034620351  0.3295871123687719
  0.3934687717662553  0.6518937311991846  0.3235505090749907
  0.1435748389109592  0.1444424926507391  0.3428617877790535
  0.2863628262168827  0.2909037688125214  0.3248013417952916
  0.4278947121971604  0.4252918597913923  0.3329134887439224
  0.3212246473837648  0.0764934802173084  0.3292131144537889
  0.4652764399735996  0.2073430072534298  0.3239594665407493
  0.5030058084153678 -0.0040128487098208  0.2228959105153885
  0.5339072432257722  0.7839002343208598  0.1999694924791597
  0.6766804206943976  0.9264608254794303  0.2236361473451276
  0.5720858261777448  0.5731528686082492  0.1963827312344646
  0.7081648034250769  0.7125813562421786  0.1985495416230790
  0.8586369820277768  0.8608604452423014  0.2360262697473269
  0.6083506007306361  0.3557917779749448  0.2029216927903730
  0.7516420713165720  0.4963380922158020  0.2058129350293091
  0.8923079096122964  0.6517160550901754  0.2097070600229614
  0.6449684283185507  0.1369901913101147  0.2164881146765525
  0.7895099997675051  0.2815808715715371  0.2128010151945856
  0.9278263029303816  0.4278706596143089  0.2119709355603582
  0.8251570349955659  0.0670090906062571  0.2191663428489836
  0.9667570521614389  0.2137796894530425  0.2182041980806670
  0.5030803037787159  0.0000754713732998  0.3481989406519459
  0.5324866294080810  0.7814198820309035  0.3226980235160672
  0.6749093592599722  0.9277620339748517  0.3468225134530306
  0.5673420968536189  0.5712191370307200  0.3218883899237178
  0.7070383170332060  0.7105322319375924  0.3245431216788047
  0.8543954435251310  0.8603148419193514  0.3579985801976961
  0.6113001236972876  0.3556391233440095  0.3211798597988438
  0.7527526801411838  0.5001689769588206  0.3279491280510368
  0.8938321151033607  0.6432290208012044  0.3338480941046016
  0.6465859948113776  0.1413202658907352  0.3384315042194390
  0.7854011310377776  0.2850500682112473  0.3371319166457865
  0.9259686577224218  0.4324281134598393  0.3329319116408770
  0.8252952364357733  0.0692839285803066  0.3467699558678066
  0.9640861280775750  0.2127901160124137  0.3365532279025503
 -0.0080848863440817  0.6684594126882696  0.2637525047095133
  0.1395826648213274  0.8080931956483258  0.3092531643920597
  0.2855468096422278  0.9511590358638666  0.2907710696455188
  0.0368819853159960  0.4535050302532336  0.2759738570870367
  0.1778314723665414  0.5995888268750019  0.2747978695632656
  0.3169137889387528  0.7426517604514223  0.2884685669202878
  0.4655267314247081  0.8833034112995857  0.2700246430688349
  0.0718535486738111  0.2323453538887178  0.2773923371669686
  0.2104529583592525  0.3842242741340163  0.2748734610845840
  0.3571501093549974  0.5333856819854272  0.2476041054968552
  0.1078697617113416  0.0250658893200406  0.2749568476845080
  0.2502044503276247  0.1770810751976589  0.2847809032572299
  0.3874566067205754  0.3123300798706173  0.2482144040356749
  0.4303429939111404  0.0910032742288013  0.2694473109992626
  0.4982013708248861  0.6704113598094625  0.2518599603485656
  0.6402932114240059  0.8072048773676496  0.2439851691611341
  0.7839691593747818  0.9488648870130172  0.2940782910444994
  0.5375904993192123  0.4530757222010752  0.2485387873522974
  0.6755989680684201  0.5958586981956695  0.2553863268201684
  0.8203497878577961  0.7373131179840385  0.2692477147985795
  0.9709174599696184  0.8799868471969259  0.2739082533899078
  0.5774836469428519  0.2285658847279210  0.2655653844204958
  0.7168746063909537  0.3815761825179491  0.2639636506855701
  0.8643366004424213  0.5256083470978733  0.2449513583838440
  0.6063521344740621  0.0250251619282171  0.2784756036128965
  0.7554460891959399  0.1632780281227062  0.2728044384262848
  0.8958811516505240  0.3072340270496700  0.2686828956381925
  0.9288015115988767  0.0913669548229973  0.2681641332049418
 
 -0.33564361E-02 -0.36337641E-03  0.48079798E-02
  0.24137269E-02 -0.12939697E-02  0.82876737E-02
 -0.21238824E-02  0.36795335E-02  0.22915002E-02
  0.21823046E-02 -0.15584614E-02  0.42657497E-02
 -0.69779240E-02 -0.54809757E-02  0.31653752E-02
  0.19425548E-02 -0.71783997E-03  0.45048650E-03
  0.53999925E-02 -0.42893311E-02 -0.13766004E-02
  0.58135446E-02  0.84730692E-03 -0.89550027E-03
  0.35945191E-03  0.21784402E-02 -0.41357783E-02
  0.16941700E-05  0.18075971E-03  0.29738239E-02
 -0.29196599E-02 -0.11906024E-02 -0.97572863E-04
  0.35730925E-02 -0.51287897E-02 -0.36237293E-02
  0.34003428E-03 -0.17300749E-02 -0.28297205E-02
 -0.24433294E-02 -0.25993421E-02  0.19772102E-02
  0.11314401E-03 -0.32078411E-02 -0.13914876E-02
  0.12267266E-02 -0.28213747E-02 -0.31999563E-02
 -0.18472551E-02 -0.19309826E-02  0.16269631E-02
 -0.30322302E-02 -0.76422226E-03 -0.13101814E-02
 -0.61486427E-02 -0.24689269E-02  0.51514150E-02
  0.66858920E-03  0.26527276E-02  0.23894752E-03
  0.14081244E-03  0.76023160E-03  0.36334606E-02
 -0.38464899E-02  0.20096231E-02  0.14340711E-02
  0.25698523E-02  0.13287438E-02  0.48714333E-02
 -0.94939040E-03 -0.35575421E-02  0.45044655E-02
  0.39141263E-02 -0.44382667E-02  0.36788458E-02
 -0.25571955E-02  0.17950115E-02  0.31382301E-02
 -0.80411663E-02 -0.26723428E-02  0.15114972E-02
  0.19858842E-02 -0.85949176E-02 -0.13377850E-03
  0.76687913E-03 -0.26372920E-02  0.24316387E-02
  0.60545831E-02 -0.13616868E-02 -0.23410430E-02
  0.40151562E-03 -0.86173558E-03 -0.19449513E-02
 -0.13212325E-02 -0.33986705E-02 -0.36737647E-02
 -0.17815815E-02 -0.77858434E-03 -0.36687159E-02
 -0.72995550E-03  0.20562066E-02  0.50665456E-02
 -0.29189450E-03  0.21859347E-02 -0.66384737E-02
 -0.32977836E-04 -0.12066555E-02 -0.97069535E-03
 -0.12525447E-02  0.23697609E-02  0.28589618E-02
  0.10227858E-02  0.18979516E-03  0.31740303E-02
 -0.11220621E-02 -0.45776194E-02  0.32447893E-02
  0.12914391E-02  0.28090024E-02  0.19188013E-02
 -0.18559779E-02  0.10664975E-02 -0.29023150E-02
 -0.75603094E-03  0.30632703E-02  0.69853495E-03
  0.56399493E-02 -0.96602114E-02  0.16915539E-03
 -0.17154336E-02 -0.20753863E-02 -0.44709433E-02
 -0.15840034E-02  0.18563719E-02  0.18417191E-02
 -0.67853216E-02  0.47860522E-03 -0.19848373E-02
  0.55914662E-03 -0.95493384E-03  0.30640820E-02
  0.10626159E-02 -0.82008338E-03 -0.77854673E-03
 -0.33548682E-02  0.32658173E-02 -0.47325385E-02
  0.20922824E-02  0.34298581E-02  0.40619930E-02
 -0.25723738E-03 -0.34966836E-03  0.61005538E-02
  0.34778613E-02  0.56247476E-02 -0.11518785E-02
  0.12871306E-02  0.40075554E-02 -0.27895679E-02
 -0.23440497E-02 -0.72258507E-03  0.44071282E-04
 -0.22952057E-02 -0.41732684E-02 -0.13898641E-02
  0.31714502E-02  0.65407239E-02 -0.17627373E-02
  0.19593916E-02 -0.15025839E-02  0.19526300E-02
  0.21216495E-02 -0.15886837E-03 -0.13707714E-02
  0.12068543E-02  0.19406143E-02  0.18743205E-03
  0.49670537E-02  0.80727515E-03  0.41724060E-02
  0.77299422E-02  0.10159792E-02 -0.43960563E-02
 -0.15255203E-03 -0.72897168E-03 -0.43250984E-02
  0.10103236E-02  0.60719554E-02  0.20856525E-03
  0.36249611E-02 -0.57591761E-02  0.27104632E-02
  0.14183933E-02  0.81734504E-02  0.31759919E-02
  0.83355923E-03  0.44298593E-02  0.11088597E-02
  0.16090292E-02  0.90766979E-03 -0.71096471E-03
  0.32540286E-02 -0.11245688E-02  0.49608337E-02
  0.54344350E-02  0.25994047E-02 -0.14403245E-02
  0.15279232E-02 -0.66233834E-02 -0.20028003E-02
 -0.25948604E-03 -0.82568117E-02  0.15956101E-03
 -0.45359151E-02  0.16930461E-04 -0.23015887E-02
 -0.14914776E-02  0.43263150E-02 -0.12173848E-02
  0.33113776E-02  0.19665256E-02  0.33702845E-02
  0.71092716E-02  0.17023890E-02  0.22878099E-02
  0.45535908E-03  0.34074535E-02 -0.24748092E-02
 -0.17487753E-02 -0.64327871E-03  0.28778564E-02
 -0.31787308E-02  0.20974372E-02  0.52445123E-03
 -0.44444343E-02  0.12111361E-02  0.17974099E-02
  0.52246050E-03 -0.49108947E-02  0.44566372E-03
 -0.87421557E-03 -0.18755870E-02 -0.21945360E-02
 -0.34901402E-02 -0.11070248E-02 -0.60590418E-02
 -0.14776762E-02  0.33633826E-02  0.21311952E-02
 -0.10611654E-03  0.87422955E-03  0.32038583E-02
  0.15169469E-02 -0.17116290E-02  0.24310924E-03
  0.78856501E-03  0.11499247E-03 -0.18784581E-03
  0.22611856E-02 -0.25329501E-02  0.44634598E-03
 -0.11192534E-02  0.44214207E-02  0.54741067E-02
  0.11001503E-02  0.14384648E-02 -0.42490771E-02
  0.25623783E-03  0.21600854E-02 -0.40757374E-02
  0.11482516E-02 -0.27435281E-02  0.60712717E-02
  0.30043929E-02  0.37106444E-02 -0.88782001E-04
 -0.40965985E-02  0.54171771E-02 -0.22134262E-02
  0.41945013E-02  0.19908708E-02  0.20358324E-02
 -0.13655914E-02  0.33551250E-02  0.22591975E-02
  0.38186504E-02  0.42571933E-02 -0.81673465E-02
 -0.36292555E-02 -0.34903054E-02  0.23028816E-02
  0.95280579E-03 -0.23094453E-02  0.54650636E-02
 -0.16001384E-02  0.19133422E-03  0.97840740E-03
  0.82850081E-03  0.44982477E-02 -0.44438227E-03
 -0.18951936E-02 -0.16784632E-02  0.16322004E-02
  0.25931477E-02  0.26014020E-03 -0.37555923E-02
 -0.41709812E-02 -0.93343652E-03 -0.23637717E-02
 -0.28739172E-02 -0.19289876E-02 -0.77547362E-03
 -0.28794533E-02 -0.86701376E-03 -0.17794451E-02
  0.23811918E-02 -0.18677949E-02  0.16981111E-02
  0.16868172E-02  0.20518385E-02  0.33430666E-02
  0.63029308E-03 -0.21762749E-02  0.33909466E-02
 -0.62804279E-02  0.52609203E-02 -0.10547610E-02
 -0.19258943E-03 -0.55909656E-02  0.39927279E-03
 -0.20660060E-02 -0.43580260E-02  0.11752892E-02
  0.14905755E-02 -0.43152490E-02 -0.21541474E-02
 -0.41132857E-02 -0.21498448E-02  0.41171801E-02
  0.25204624E-02 -0.18874161E-02  0.12081390E-02
 -0.18883118E-02 -0.27354968E-02 -0.57164601E-02
  0.13876448E-02 -0.39934663E-03 -0.74577200E-03
 -0.31439100E-02  0.51673415E-03  0.17454393E-02
  0.43436652E-02 -0.50400521E-03 -0.42837017E-02
  0.14369648E-02  0.30783986E-02 -0.68152044E-03
  0.45453251E-02 -0.17941017E-03 -0.46380702E-02
 -0.37764149E-03  0.29990970E-03 -0.41176189E-02
  0.15701863E-02 -0.18596452E-02 -0.19315689E-03
  0.92889256E-03 -0.57960997E-03 -0.39394065E-02
  0.12762958E-02 -0.75974677E-03 -0.47755889E-02
 -0.53737987E-02  0.35107079E-02 -0.39925774E-02
  0.46955841E-02  0.15289139E-02 -0.16231731E-02
  0.65279268E-04 -0.75572985E-02 -0.21591818E-02
 -0.12487638E-02 -0.13042862E-02  0.10369839E-02
  0.26728529E-02 -0.14978256E-02  0.39271553E-02
  0.69923179E-03 -0.16487231E-02 -0.16397184E-02
 -0.29375337E-03  0.26520911E-03  0.23420531E-02
  0.30674696E-02  0.14098468E-03  0.56009889E-04
 -0.29093275E-02  0.16291072E-02 -0.28923686E-03
 -0.22928978E-02 -0.29728143E-02 -0.19982489E-02
  0.43117935E-02  0.24304358E-02 -0.68691179E-02
  0.90993713E-04 -0.24148476E-04  0.54347063E-03
  0.46638493E-02 -0.50704806E-02  0.16082857E-02
 -0.27871514E-02 -0.28546936E-02  0.16889413E-02
 -0.19971238E-02 -0.31479199E-03 -0.42540718E-02
 -0.12275245E-02  0.50696784E-02 -0.28848257E-02
 -0.52736135E-02 -0.26964744E-02 -0.48224441E-02
  0.39964177E-02 -0.16382494E-02 -0.70170493E-03
 -0.18327953E-02  0.91569920E-03 -0.11946712E-02
  0.44650466E-02  0.42773316E-02  0.43102379E-03
 -0.29914900E-02  0.16236595E-02 -0.34472404E-02
  0.28628437E-03  0.56618108E-02 -0.27308537E-02
  0.33938846E-02 -0.22694821E-03 -0.14706852E-02
  0.15464267E-02 -0.18913146E-02 -0.10628674E-02
  0.38233718E-02 -0.33161699E-02 -0.20834113E-02
  0.26431751E-02 -0.20038937E-02  0.12168512E-03
  0.38669763E-02 -0.20959719E-02 -0.95984206E-03
 -0.25110413E-02  0.31292427E-02 -0.19143088E-02
 -0.54653007E-03 -0.47066065E-02  0.34751682E-03
 -0.30424958E-03 -0.21838422E-02 -0.41880843E-02
 -0.72165252E-02  0.29942928E-02 -0.47372946E-02
  0.52125893E-03 -0.24195318E-02  0.21210511E-02
 -0.84714709E-03  0.27779637E-02 -0.42535425E-03
 -0.23969244E-02  0.45120151E-03 -0.17787534E-02
  0.18805049E-02  0.37082443E-02  0.44378360E-02
  0.16922072E-02  0.41019621E-02  0.35641723E-03
  0.22468882E-04  0.23500661E-02 -0.28563661E-03
  0.48621897E-03 -0.34801129E-02 -0.52978277E-02
  0.20195580E-02  0.31679133E-02  0.74294658E-03
  0.55350596E-03 -0.36591182E-02 -0.33362464E-02
 -0.33226641E-02  0.26368902E-02 -0.14479613E-02
 -0.27774916E-02  0.41631287E-03 -0.29281024E-02
  0.67061985E-04 -0.32450111E-02 -0.29530524E-04
 -0.50031933E-02  0.10375754E-02 -0.36852552E-02
 -0.14696944E-02  0.10215765E-02 -0.46896885E-02
 -0.13291532E-02  0.67348089E-03  0.13877152E-02
  0.14035317E-02  0.25603445E-02 -0.24004929E-02
  0.15582348E-02  0.19513177E-02  0.27792673E-03
  0.17309943E-02  0.25382701E-02 -0.49868015E-05
  0.74652772E-03  0.20439517E-02 -0.11121172E-02
  0.59751074E-03 -0.50100970E-02 -0.20047389E-02
  0.44144686E-02 -0.52958765E-03  0.11413975E-02
  0.12953144E-03 -0.52746768E-04 -0.20120217E-02
 -0.21365417E-02  0.16788610E-02 -0.88031453E-03
 -0.36529590E-02 -0.15396245E-02  0.17889500E-02
 -0.35856925E-03  0.27138908E-02  0.21314510E-02
  0.12099951E-02  0.27690519E-02 -0.41950913E-03
 -0.10303379E-02 -0.22731098E-02  0.88739330E-03
  0.32098409E-03 -0.12768055E-03  0.10578050E-02
  0.28060152E-02 -0.15165111E-04 -0.93609359E-03
 -0.20546286E-02  0.40365873E-03 -0.24601464E-02
 -0.16480355E-02 -0.24788866E-02  0.33383542E-02
  0.73512062E-03 -0.13173500E-02  0.26419411E-02
 -0.64126565E-04 -0.14516504E-02 -0.13224392E-02
 -0.17334053E-03  0.28443429E-02  0.55441055E-03
  0.53787819E-03  0.16260819E-02 -0.10934484E-03
  0.38624068E-02  0.23644499E-03 -0.16287886E-02
  0.20517557E-02 -0.69244653E-04  0.21109247E-03
  0.14204246E-02 -0.12648166E-02  0.53455110E-03
 -0.14386099E-02  0.12139838E-02 -0.20108566E-03
  0.22592614E-02 -0.13642262E-02  0.14135737E-04
 -0.89639051E-03  0.31915885E-03  0.48060454E-02
  0.12103231E-02  0.55572114E-03  0.21680094E-03
 -0.17930146E-02 -0.34714176E-02  0.36485971E-02
 -0.41536526E-02 -0.52913979E-03 -0.43674640E-03
 -0.25531324E-02 -0.35748654E-02  0.53532362E-02
 -0.22315232E-02  0.18961448E-02  0.20575237E-02
 -0.12846926E-02 -0.32494057E-02  0.39145539E-02
  0.20832736E-02 -0.12427831E-02  0.63746032E-03
 -0.94398377E-03  0.16679716E-02  0.43854013E-02
 -0.35842019E-03  0.63843995E-02 -0.26072264E-02
 -0.49561536E-02  0.12822644E-02  0.83034791E-03
  0.28902537E-03  0.53567221E-02  0.45589203E-03
 -0.16643962E-02 -0.72983768E-03 -0.56364582E-02
  0.91342151E-03 -0.36284140E-02  0.57750149E-03
 -0.33751965E-02  0.74605566E-02  0.83038826E-03
  0.23145564E-03 -0.49568136E-02  0.31368201E-02
 -0.69551165E-03 -0.21387177E-03 -0.46872232E-03
 -0.75597148E-03  0.15459929E-02 -0.10104382E-02
 -0.50392230E-02 -0.26282213E-02  0.25400985E-02
 -0.60394702E-02  0.11620710E-02  0.10381553E-02
 -0.21853537E-03  0.28996033E-02  0.10483246E-02
 -0.66246757E-02 -0.41509668E-02 -0.48432830E-02
 -0.47791727E-02  0.71811560E-03  0.28250365E-02
  0.30122789E-02 -0.47580583E-02  0.10802878E-02
 -0.40803229E-03 -0.12861847E-02  0.69850696E-02
 -0.25355848E-02 -0.33402379E-02  0.21652877E-02
  0.62451643E-02  0.91960074E-02  0.20325418E-03
  0.14177594E-02  0.98898500E-03 -0.84960535E-03
  0.15818713E-02 -0.32733083E-02 -0.10176975E-02
 -0.30669534E-02 -0.43648402E-02 -0.17974881E-02
 -0.57526785E-02  0.11858670E-03  0.26878513E-02
 -0.28293966E-02 -0.45003186E-02 -0.44118577E-02
 -0.98311770E-03  0.34739773E-02 -0.13976988E-02
 -0.72716427E-02 -0.11343352E-02 -0.41773238E-02
 -0.11989704E-02 -0.10577068E-02 -0.24893962E-02
 -0.11192928E-02  0.29462618E-02  0.38150949E-02
  0.29089276E-02  0.17498087E-03 -0.52749547E-02
 -0.75409583E-03 -0.21985803E-02 -0.49699245E-02
  0.24364023E-02  0.10725214E-02  0.20239381E-02
 -0.30193195E-02 -0.32770321E-02  0.47949015E-02
 -0.30219770E-02  0.68598301E-02 -0.38235098E-02
 -0.36001277E-02  0.99651195E-03  0.30562741E-03
  0.27062454E-02  0.49701928E-02 -0.29097662E-02
  0.17390752E-02  0.91680809E-03 -0.44752028E-02
 -0.55817409E-02  0.24543390E-02  0.69030615E-02
  0.43375597E-02 -0.30800509E-02 -0.97227107E-03
  0.12600356E-02 -0.10502323E-02 -0.35998607E-02
 -0.13853038E-02  0.20880155E-02 -0.34152684E-02
  0.55265771E-02  0.22854517E-02 -0.20798018E-02
  0.30115168E-03  0.79138723E-03  0.25290074E-02
 -0.34945776E-02  0.31219962E-04 -0.86734173E-04
 -0.12979350E-02  0.47893048E-02 -0.17222412E-02
 -0.28720994E-02  0.28006433E-02  0.42560091E-02
 -0.33171397E-02  0.51329801E-02 -0.10463689E-02
  0.12627477E-02  0.10542596E-02  0.39428127E-03
  0.19661718E-02  0.22323723E-02  0.16800966E-02
 -0.29059989E-02 -0.19603286E-02  0.84502763E-03
 -0.64131458E-03  0.14053492E-02 -0.34619915E-04
 -0.15210608E-02 -0.51331540E-03  0.24516957E-04
 -0.13292997E-03 -0.38582989E-03 -0.36121728E-03
 -0.19236277E-02  0.39200976E-02  0.22066675E-03
  0.16129059E-02  0.58554114E-03  0.22217761E-02