m1CONTCARsupper
1.0
       32.4035987854         0.0000000000         0.0000000000
       -0.0003437759        28.0620994547         0.0000000000
        0.0000000000         0.0000000000        18.4095001221
    S   Cu    P   In
  168   28   56   28
Direct
     0.014480000         0.932370007         0.180230007
     0.050200000         0.718079984         0.180230007
     0.193059996         0.860939980         0.180230007
     0.085910000         0.503799975         0.180230007
     0.228770003         0.646650016         0.180230007
     0.371630013         0.789510012         0.180230007
     0.121629998         0.289510012         0.180230007
     0.264479995         0.432370007         0.180230007
     0.407339990         0.575219989         0.180230007
     0.157340005         0.075220004         0.180230007
     0.300199986         0.218079999         0.180230007
     0.443060011         0.360940009         0.180230007
     0.335909992         0.003800000         0.180230007
     0.478769988         0.146650001         0.180230007
     0.079200000         0.834010005         0.180230007
     0.222049996         0.976870000         0.180230007
     0.114909999         0.619729996         0.180230007
     0.257770002         0.762589991         0.180230007
     0.400620013         0.905439973         0.180230007
     0.007770000         0.262589991         0.180230007
     0.150619999         0.405440003         0.180230007
     0.293480009         0.548300028         0.180230007
     0.436340004         0.691160023         0.180230007
     0.043480001         0.048300002         0.180230007
     0.186340004         0.191159993         0.180230007
     0.329200000         0.334010005         0.180230007
     0.472050011         0.476870000         0.180230007
     0.364910007         0.119730003         0.180230007
     0.120600000         0.947899997         0.180230007
     0.013460000         0.590759993         0.180230007
     0.156320006         0.733619988         0.180230007
     0.299180001         0.876470029         0.180230007
     0.049180001         0.376470000         0.180230007
     0.192029998         0.519330025         0.180230007
     0.334890008         0.662190020         0.180230007
     0.477750003         0.805050015         0.180230007
     0.084890001         0.162190005         0.180230007
     0.227750003         0.305049986         0.180230007
     0.370599985         0.447899997         0.180230007
     0.263460010         0.090760000         0.180230007
     0.406320006         0.233620003         0.180230007
     0.442030013         0.019330001         0.180230007
     0.135729998         0.878799975         0.364820004
     0.028589999         0.521650016         0.364820004
     0.171440005         0.664510012         0.364820004
     0.314300001         0.807370007         0.364820004
     0.457159996         0.950230002         0.364820004
     0.064300001         0.307370007         0.364820004
     0.207159996         0.450230002         0.364820004
     0.350019991         0.593079984         0.364820004
     0.492870003         0.735939980         0.364820004
     0.100019999         0.093079999         0.364820004
     0.242870003         0.235939994         0.364820004
     0.385729998         0.378800005         0.364820004
     0.278589994         0.021650000         0.364820004
     0.421440005         0.164509997         0.364820004
     0.019800000         0.853439987         0.364820004
     0.162660003         0.996299982         0.364820004
     0.055520002         0.639159977         0.364820004
     0.198379993         0.782019973         0.364820004
     0.341230005         0.924870014         0.364820004
     0.091229998         0.424870014         0.364820004
     0.234090000         0.567730010         0.364820004
     0.376949996         0.710590005         0.364820004
     0.126949996         0.210590005         0.364820004
     0.269800007         0.353439987         0.364820004
     0.412660003         0.496300012         0.364820004
     0.305519998         0.139160007         0.364820004
     0.448379993         0.282020003         0.364820004
     0.484090000         0.067730002         0.364820004
     0.058750000         0.982050002         0.364820004
     0.094470002         0.767759979         0.364820004
     0.237320006         0.910619974         0.364820004
     0.130180001         0.553470016         0.364820004
     0.273039997         0.696330011         0.364820004
     0.415890008         0.839190006         0.364820004
     0.023040000         0.196329996         0.364820004
     0.165889993         0.339190006         0.364820004
     0.308750004         0.482050002         0.364820004
     0.451609999         0.624899983         0.364820004
     0.201609999         0.124899998         0.364820004
     0.344469994         0.267760009         0.364820004
     0.487320006         0.410620004         0.364820004
     0.380180001         0.053470001         0.364820004
     0.514479995         0.932370007         0.180230007
     0.550199986         0.718079984         0.180230007
     0.693059981         0.860939980         0.180230007
     0.585910022         0.503799975         0.180230007
     0.728770018         0.646650016         0.180230007
     0.871630013         0.789510012         0.180230007
     0.621630013         0.289510012         0.180230007
     0.764479995         0.432370007         0.180230007
     0.907339990         0.575219989         0.180230007
     0.657339990         0.075220004         0.180230007
     0.800199986         0.218079999         0.180230007
     0.943059981         0.360940009         0.180230007
     0.835910022         0.003800000         0.180230007
     0.978770018         0.146650001         0.180230007
     0.579200029         0.834010005         0.180230007
     0.722050011         0.976870000         0.180230007
     0.614910007         0.619729996         0.180230007
     0.757770002         0.762589991         0.180230007
     0.900619984         0.905439973         0.180230007
     0.507770002         0.262589991         0.180230007
     0.650619984         0.405440003         0.180230007
     0.793479979         0.548300028         0.180230007
     0.936339974         0.691160023         0.180230007
     0.543479979         0.048300002         0.180230007
     0.686339974         0.191159993         0.180230007
     0.829200029         0.334010005         0.180230007
     0.972050011         0.476870000         0.180230007
     0.864910007         0.119730003         0.180230007
     0.620599985         0.947899997         0.180230007
     0.513459980         0.590759993         0.180230007
     0.656319976         0.733619988         0.180230007
     0.799179971         0.876470029         0.180230007
     0.549179971         0.376470000         0.180230007
     0.692030013         0.519330025         0.180230007
     0.834890008         0.662190020         0.180230007
     0.977750003         0.805050015         0.180230007
     0.584890008         0.162190005         0.180230007
     0.727750003         0.305049986         0.180230007
     0.870599985         0.447899997         0.180230007
     0.763459980         0.090760000         0.180230007
     0.906319976         0.233620003         0.180230007
     0.942030013         0.019330001         0.180230007
     0.635730028         0.878799975         0.364820004
     0.528590024         0.521650016         0.364820004
     0.671440005         0.664510012         0.364820004
     0.814300001         0.807370007         0.364820004
     0.957159996         0.950230002         0.364820004
     0.564300001         0.307370007         0.364820004
     0.707159996         0.450230002         0.364820004
     0.850019991         0.593079984         0.364820004
     0.992869973         0.735939980         0.364820004
     0.600019991         0.093079999         0.364820004
     0.742869973         0.235939994         0.364820004
     0.885730028         0.378800005         0.364820004
     0.778590024         0.021650000         0.364820004
     0.921440005         0.164509997         0.364820004
     0.519800007         0.853439987         0.364820004
     0.662660003         0.996299982         0.364820004
     0.555519998         0.639159977         0.364820004
     0.698379993         0.782019973         0.364820004
     0.841229975         0.924870014         0.364820004
     0.591229975         0.424870014         0.364820004
     0.734089971         0.567730010         0.364820004
     0.876950026         0.710590005         0.364820004
     0.626950026         0.210590005         0.364820004
     0.769800007         0.353439987         0.364820004
     0.912660003         0.496300012         0.364820004
     0.805519998         0.139160007         0.364820004
     0.948379993         0.282020003         0.364820004
     0.984089971         0.067730002         0.364820004
     0.558749974         0.982050002         0.364820004
     0.594470024         0.767759979         0.364820004
     0.737320006         0.910619974         0.364820004
     0.630180001         0.553470016         0.364820004
     0.773039997         0.696330011         0.364820004
     0.915889978         0.839190006         0.364820004
     0.523039997         0.196329996         0.364820004
     0.665889978         0.339190006         0.364820004
     0.808749974         0.482050002         0.364820004
     0.951610029         0.624899983         0.364820004
     0.701610029         0.124899998         0.364820004
     0.844470024         0.267760009         0.364820004
     0.987320006         0.410620004         0.364820004
     0.880180001         0.053470001         0.364820004
     0.071429998         0.904760003         0.346879989
     0.107139997         0.690479994         0.346879989
     0.250000000         0.833329976         0.346879989
     0.392859995         0.976189971         0.346879989
     0.000000000         0.333330005         0.346879989
     0.142859995         0.476190001         0.346879989
     0.285710007         0.619050026         0.346879989
     0.428570002         0.761910021         0.346879989
     0.035710000         0.119050004         0.346879989
     0.178570002         0.261909992         0.346879989
     0.321429998         0.404760003         0.346879989
     0.464289993         0.547619998         0.346879989
     0.214289993         0.047619998         0.346879989
     0.357140005         0.190479994         0.346879989
     0.571430027         0.904760003         0.346879989
     0.607140005         0.690479994         0.346879989
     0.750000000         0.833329976         0.346879989
     0.892859995         0.976189971         0.346879989
     0.500000000         0.333330005         0.346879989
     0.642859995         0.476190001         0.346879989
     0.785709977         0.619050026         0.346879989
     0.928569973         0.761910021         0.346879989
     0.535709977         0.119050004         0.346879989
     0.678569973         0.261909992         0.346879989
     0.821430027         0.404760003         0.346879989
     0.964290023         0.547619998         0.346879989
     0.714290023         0.047619998         0.346879989
     0.857140005         0.190479994         0.346879989
     0.000000000         0.000000000         0.208939999
     0.035710000         0.785709977         0.208939999
     0.178570002         0.928569973         0.208939999
     0.071429998         0.571430027         0.208939999
     0.214289993         0.714290023         0.208939999
     0.357140005         0.857140005         0.208939999
     0.107139997         0.357140005         0.208939999
     0.250000000         0.500000000         0.208939999
     0.392859995         0.642859995         0.208939999
     0.142859995         0.142859995         0.208939999
     0.285710007         0.285710007         0.208939999
     0.428570002         0.428570002         0.208939999
     0.321429998         0.071429998         0.208939999
     0.464289993         0.214289993         0.208939999
     0.000000000         0.000000000         0.331380010
     0.035710000         0.785709977         0.331380010
     0.178570002         0.928569973         0.331380010
     0.071429998         0.571430027         0.331380010
     0.214289993         0.714290023         0.331380010
     0.357140005         0.857140005         0.331380010
     0.107139997         0.357140005         0.331380010
     0.250000000         0.500000000         0.331380010
     0.392859995         0.642859995         0.331380010
     0.142859995         0.142859995         0.331380010
     0.285710007         0.285710007         0.331380010
     0.428570002         0.428570002         0.331380010
     0.321429998         0.071429998         0.331380010
     0.464289993         0.214289993         0.331380010
     0.500000000         0.000000000         0.208939999
     0.535709977         0.785709977         0.208939999
     0.678569973         0.928569973         0.208939999
     0.571430027         0.571430027         0.208939999
     0.714290023         0.714290023         0.208939999
     0.857140005         0.857140005         0.208939999
     0.607140005         0.357140005         0.208939999
     0.750000000         0.500000000         0.208939999
     0.892859995         0.642859995         0.208939999
     0.642859995         0.142859995         0.208939999
     0.785709977         0.285710007         0.208939999
     0.928569973         0.428570002         0.208939999
     0.821430027         0.071429998         0.208939999
     0.964290023         0.214289993         0.208939999
     0.500000000         0.000000000         0.331380010
     0.535709977         0.785709977         0.331380010
     0.678569973         0.928569973         0.331380010
     0.571430027         0.571430027         0.331380010
     0.714290023         0.714290023         0.331380010
     0.857140005         0.857140005         0.331380010
     0.607140005         0.357140005         0.331380010
     0.750000000         0.500000000         0.331380010
     0.892859995         0.642859995         0.331380010
     0.642859995         0.142859995         0.331380010
     0.785709977         0.285710007         0.331380010
     0.928569973         0.428570002         0.331380010
     0.821430027         0.071429998         0.331380010
     0.964290023         0.214289993         0.331380010
     0.000000000         0.666670024         0.258830011
     0.142859995         0.809520006         0.258830011
     0.285710007         0.952380002         0.258830011
     0.035710000         0.452380002         0.258830011
     0.178570002         0.595239997         0.258830011
     0.321429998         0.738099992         0.258830011
     0.464289993         0.880949974         0.258830011
     0.071429998         0.238100007         0.258830011
     0.214289993         0.380950004         0.258830011
     0.357140005         0.523810029         0.258830011
     0.107139997         0.023809999         0.258830011
     0.250000000         0.166669995         0.258830011
     0.392859995         0.309520006         0.258830011
     0.428570002         0.095239997         0.258830011
     0.500000000         0.666670024         0.258830011
     0.642859995         0.809520006         0.258830011
     0.785709977         0.952380002         0.258830011
     0.535709977         0.452380002         0.258830011
     0.678569973         0.595239997         0.258830011
     0.821430027         0.738099992         0.258830011
     0.964290023         0.880949974         0.258830011
     0.571430027         0.238100007         0.258830011
     0.714290023         0.380950004         0.258830011
     0.857140005         0.523810029         0.258830011
     0.607140005         0.023809999         0.258830011
     0.750000000         0.166669995         0.258830011
     0.892859995         0.309520006         0.258830011
     0.928569973         0.095239997         0.258830011
