site1                                   
   1.00000000000000     
     6.1236741070730307    0.0000409887324208    0.0000000000000000
    -3.0618015646296057    5.3032490162721055    0.0000000000000000
     0.0000000000000000    0.0000000000000000   18.4095001220999990
   S    Cu   P    In
     6     1     2     1
Direct
  0.3284682151438171  0.0192717474540239  0.1802256992544323
  0.9807262097523973  0.3091926027878340  0.1802256524234813
  0.6908033855591982  0.6715276492468556  0.1802259031069253
  0.0277309528416505  0.6931754218378685  0.3648207483435627
  0.6654439388047424  0.9722726114420823  0.3648199839915466
  0.3068271435076437  0.3345578000905242  0.3648204643016511
  0.6666668175097241  0.3333357632884090  0.3468840283511631
  0.0000008884681199  0.0000004599860962  0.2089438515530163
  0.0000000738374371  0.0000001316393023  0.3313771478904753
  0.3333323435752707  0.6666659072269872  0.2588263517837529
 
  0.00000000E+00  0.00000000E+00  0.00000000E+00
  0.00000000E+00  0.00000000E+00  0.00000000E+00
  0.00000000E+00  0.00000000E+00  0.00000000E+00
  0.00000000E+00  0.00000000E+00  0.00000000E+00
  0.00000000E+00  0.00000000E+00  0.00000000E+00
  0.00000000E+00  0.00000000E+00  0.00000000E+00
  0.00000000E+00  0.00000000E+00  0.00000000E+00
  0.00000000E+00  0.00000000E+00  0.00000000E+00
  0.00000000E+00  0.00000000E+00  0.00000000E+00
  0.00000000E+00  0.00000000E+00  0.00000000E+00
