generated by phonopy
   1.0
    18.3710223212190940    0.0001229661972624    0.0000000000000000
    -9.1854046938888168   15.9097470488163175    0.0000000000000000
     0.0000000000000000    0.0000000000000000   18.4095001220999990
S Cu P In
  54    9   18    9
Direct
  0.1094894050479390  0.0064239158180080  0.1802256992544323
  0.4428227383812723  0.0064239158180080  0.1802256992544323
  0.7761560717146057  0.0064239158180080  0.1802256992544323
  0.1094894050479390  0.3397572491513413  0.1802256992544323
  0.4428227383812723  0.3397572491513413  0.1802256992544323
  0.7761560717146057  0.3397572491513413  0.1802256992544323
  0.1094894050479390  0.6730905824846746  0.1802256992544323
  0.4428227383812723  0.6730905824846746  0.1802256992544323
  0.7761560717146057  0.6730905824846746  0.1802256992544323
  0.3269087365841324  0.1030642009292780  0.1802256524234813
  0.6602420699174658  0.1030642009292780  0.1802256524234813
  0.9935754032507991  0.1030642009292780  0.1802256524234813
  0.3269087365841324  0.4363975342626113  0.1802256524234813
  0.6602420699174658  0.4363975342626113  0.1802256524234813
  0.9935754032507991  0.4363975342626113  0.1802256524234813
  0.3269087365841324  0.7697308675959447  0.1802256524234813
  0.6602420699174658  0.7697308675959447  0.1802256524234813
  0.9935754032507991  0.7697308675959447  0.1802256524234813
  0.2302677951863994  0.2238425497489518  0.1802259031069253
  0.5636011285197327  0.2238425497489518  0.1802259031069253
  0.8969344618530660  0.2238425497489518  0.1802259031069253
  0.2302677951863994  0.5571758830822852  0.1802259031069253
  0.5636011285197327  0.5571758830822852  0.1802259031069253
  0.8969344618530660  0.5571758830822852  0.1802259031069253
  0.2302677951863994  0.8905092164156185  0.1802259031069253
  0.5636011285197327  0.8905092164156185  0.1802259031069253
  0.8969344618530660  0.8905092164156185  0.1802259031069253
  0.0092436509472168  0.2310584739459562  0.3648207483435627
  0.3425769842805502  0.2310584739459562  0.3648207483435627
  0.6759103176138834  0.2310584739459562  0.3648207483435627
  0.0092436509472168  0.5643918072792895  0.3648207483435627
  0.3425769842805502  0.5643918072792895  0.3648207483435627
  0.6759103176138834  0.5643918072792895  0.3648207483435627
  0.0092436509472168  0.8977251406126229  0.3648207483435627
  0.3425769842805502  0.8977251406126229  0.3648207483435627
  0.6759103176138834  0.8977251406126229  0.3648207483435627
  0.2218146462682475  0.3240908704806941  0.3648199839915466
  0.5551479796015808  0.3240908704806941  0.3648199839915466
  0.8884813129349141  0.3240908704806941  0.3648199839915466
  0.2218146462682475  0.6574242038140274  0.3648199839915466
  0.5551479796015808  0.6574242038140274  0.3648199839915466
  0.8884813129349141  0.6574242038140274  0.3648199839915466
  0.2218146462682475  0.9907575371473607  0.3648199839915466
  0.5551479796015808  0.9907575371473607  0.3648199839915466
  0.8884813129349141  0.9907575371473607  0.3648199839915466
  0.1022757145025479  0.1115192666968414  0.3648204643016511
  0.4356090478358812  0.1115192666968414  0.3648204643016511
  0.7689423811692145  0.1115192666968414  0.3648204643016511
  0.1022757145025479  0.4448526000301747  0.3648204643016511
  0.4356090478358812  0.4448526000301747  0.3648204643016511
  0.7689423811692145  0.4448526000301747  0.3648204643016511
  0.1022757145025479  0.7781859333635081  0.3648204643016511
  0.4356090478358812  0.7781859333635081  0.3648204643016511
  0.7689423811692145  0.7781859333635081  0.3648204643016511
  0.2222222725032414  0.1111119210961363  0.3468840283511631
  0.5555556058365747  0.1111119210961363  0.3468840283511631
  0.8888889391699080  0.1111119210961363  0.3468840283511631
  0.2222222725032414  0.4444452544294697  0.3468840283511631
  0.5555556058365747  0.4444452544294697  0.3468840283511631
  0.8888889391699080  0.4444452544294697  0.3468840283511631
  0.2222222725032414  0.7777785877628030  0.3468840283511631
  0.5555556058365747  0.7777785877628030  0.3468840283511631
  0.8888889391699080  0.7777785877628030  0.3468840283511631
  0.0000002961560400  0.0000001533286987  0.2089438515530163
  0.3333336294893733  0.0000001533286987  0.2089438515530163
  0.6666669628227067  0.0000001533286987  0.2089438515530163
  0.0000002961560400  0.3333334866620320  0.2089438515530163
  0.3333336294893733  0.3333334866620320  0.2089438515530163
  0.6666669628227067  0.3333334866620320  0.2089438515530163
  0.0000002961560400  0.6666668199953654  0.2089438515530163
  0.3333336294893733  0.6666668199953654  0.2089438515530163
  0.6666669628227067  0.6666668199953654  0.2089438515530163
  0.0000000246124790  0.0000000438797674  0.3313771478904753
  0.3333333579458123  0.0000000438797674  0.3313771478904753
  0.6666666912791457  0.0000000438797674  0.3313771478904753
  0.0000000246124790  0.3333333772131007  0.3313771478904753
  0.3333333579458123  0.3333333772131007  0.3313771478904753
  0.6666666912791457  0.3333333772131007  0.3313771478904753
  0.0000000246124790  0.6666667105464340  0.3313771478904753
  0.3333333579458123  0.6666667105464340  0.3313771478904753
  0.6666666912791457  0.6666667105464340  0.3313771478904753
  0.1111107811917569  0.2222219690756624  0.2588263517837529
  0.4444441145250902  0.2222219690756624  0.2588263517837529
  0.7777774478584236  0.2222219690756624  0.2588263517837529
  0.1111107811917569  0.5555553024089956  0.2588263517837529
  0.4444441145250902  0.5555553024089956  0.2588263517837529
  0.7777774478584236  0.5555553024089956  0.2588263517837529
  0.1111107811917569  0.8888886357423289  0.2588263517837529
  0.4444441145250902  0.8888886357423289  0.2588263517837529
  0.7777774478584236  0.8888886357423289  0.2588263517837529
