carbon_up_CONTCAR_supper                
   1.00000000000000     
    28.0032999999999994    0.0000000000000000    0.0000000000000000
     0.0000000000000000   16.1677000000000000    0.0000000000000000
     0.0000000000000000    0.0000000000000000   30.0000000000000000
   C    P    S    Cu   In
   172    28    84    14    14
Selective dynamics
Direct
 -0.1856108597704131  0.2723585275421765  0.4000422774174281   T   T   T
  0.3116085136388497  0.7656518577436573  0.4051876496467757   T   T   T
 -0.1163702195462288  1.1769672727440934  0.4043840700897998   T   T   T
  0.3820440691116960  0.6794921581727286  0.4033997751767424   T   T   T
 -0.0478536238841580  1.0807945836449420  0.4106959642976137   T   T   T
  0.4512621973226831  0.5872627339923928  0.4089958975883779   T   T   T
  0.0227223998468481  0.9895803088836056  0.4085708594746820   T   T   T
  0.5213850234933275  0.4925335382776586  0.4049134020569390   T   T   T
  0.0915682959536370  0.8997489581081650  0.4033530546567588   T   T   T
  0.5925189045851834  0.3987045434304209  0.4020098008328947   T   T   T
  0.1604991692408803  0.8014341539759785  0.3988385891072601   T   T   T
  0.6608996493937689  0.3072783880558985  0.4035755792907721   T   T   T
 -0.2695768734066213  0.2152216949931741  0.4014742293871641   T   T   T
  0.2315073151206615  0.7104744560569943  0.4015293503819081   T   T   T
 -0.1045737152925176  0.3275244476947806  0.4018875727878284   T   T   T
  0.3929505822733819  0.8282183975008472  0.4021294373067083   T   T   T
 -0.0359007223122771  0.2302751484604633  0.4030126920321658   T   T   T
  0.4640908201204230  0.7374284992527590  0.4064378270216946   T   T   T
  0.0337626627090841  1.1425241144898322  0.4043725227775843   T   T   T
  0.5352904202037273  0.6419808097265147  0.4060422935187543   T   T   T
  0.1035155921762620  1.0467755360239099  0.4069712358826377   T   T   T
  0.6036314500755362  0.5507096207501440  0.4073527185823095   T   T   T
  0.1729679467898333  0.9548447036007655  0.4035984851734753   T   T   T
  0.6729827827587765  0.4588426223796525  0.4032661912871298   T   T   T
 -0.2561324228391090  0.3636068394131837  0.4029933631826626   T   T   T
  0.2431204548106156  0.8602442939248675  0.4004666068309778   T   T   T
 -0.0243468327475975  0.3832288212903334  0.3994848059352151   T   T   T
  0.4758386926519351  0.8858269495359710  0.4124511795346685   T   T   T
  0.0440999625672047  0.2886411564055140  0.3982300228190382   T   T   T
  0.5453879292861160  0.7928093350091389  0.4119188280814419   T   T   T
  0.1143476629375512  1.1992064269775073  0.4023438766718687   T   T   T
  0.6155804147946218  0.7045077371752091  0.4105236091422844   T   T   T
  0.1849170867742965  1.1056542108326604  0.4071267390427433   T   T   T
  0.6850971590024940  0.6085286012848746  0.4105465357774069   T   T   T
 -0.2473493335186991  0.5126996699622307  0.3999594535361123   T   T   T
  0.2545419458566001  1.0155858140970910  0.4051474754771774   T   T   T
 -0.1747746317481635  0.4195167689854029  0.4009036641412734   T   T   T
  0.3220687381220012  0.9214604524817244  0.4046608485206154   T   T   T
  0.0568484733247320  0.4416412246682879  0.4020487682820373   T   T   T
  0.5581857951092943  0.9466638569955570  0.4145393675590880   T   T   T
  0.1261294504929554  0.3503559363002480  0.4031806678053866   T   T   T
  0.6278793089069958  0.8538319876378794  0.4145419591711162   T   T   T
  0.1970281490450923  0.2590234534296335  0.4033931483843255   T   T   T
  0.6960584617087890  0.7589435528944618  0.4095018860519281   T   T   T
 -0.2352904227936383  0.6659072060565102  0.4021905453301500   T   T   T
  0.2659910486197360  1.1655716238104847  0.4066335899477308   T   T   T
 -0.1646519708469042  0.5746116415774402  0.3996103305520660   T   T   T
  0.3379335738409138  1.0724210076351697  0.4057229008623435   T   T   T
 -0.0933803981831147  0.4809652840558151  0.4000117384030112   T   T   T
  0.4062758269166105  0.9785823061374094  0.4086496945221607   T   T   T
  0.1366250652230480  0.5004046188553724  0.3951050654293528   T   T   T
  0.6375762821423862  1.0049536002427528  0.4118204360152548   T   T   T
  0.2069507609272171  0.4081042886439933  0.4050100274311868   T   T   T
  0.7073360920850961  0.9114599823630781  0.4099696939174405   T   T   T
 -0.2231759724717048  0.8177804474450840  0.4042811385225403   T   T   T
  0.2769520660272930  0.3147016230508731  0.4036731243055460   T   T   T
 -0.1536226792754027  0.7263712937375647  0.3976667941166327   T   T   T
  0.3468712387667868  0.2224210852664635  0.4067350044304098   T   T   T
 -0.0830906858399882  0.6315033203416475  0.3990314125165217   T   T   T
  0.4182737080645954  1.1313660454285295  0.4066313537061598   T   T   T
 -0.0118910897770061  0.5366266910580211  0.3998273828698274   T   T   T
  0.4870497644974509  1.0354677551963281  0.4068287777245443   T   T   T
  0.2195576791361757  0.5578020159518048  0.4032585994619471   T   T   T
  0.7196403556223242  1.0625880822757823  0.4103622063988814   T   T   T
 -0.2104228463411320  0.9699682585377793  0.4051887950622181   T   T   T
  0.2899692744818222  0.4664376649979916  0.4038229853210458   T   T   T
 -0.1415314269470199  0.8761322071653639  0.4001203700142233   T   T   T
  0.3605580927829426  0.3752062662173153  0.4057721696460007   T   T   T
 -0.0717429475549107  0.7812638933748997  0.3975761296750033   T   T   T
  0.4289189103791067  0.2830654636790326  0.4077496761469133   T   T   T
 -0.0020046433441523  0.6854915778363943  0.3986372965407987   T   T   T
  0.4991865235444246  1.1872567275456154  0.4050415365463960   T   T   T
  0.0686852428499881  0.5927341238608019  0.3968069688227582   T   T   T
  0.5674969676709661  1.0942650090808854  0.4100783778657026   T   T   T
 -0.1983272485946265  1.1188482278547933  0.4037893468250379   T   T   T
  0.2997670507148779  0.6174090098345349  0.4027353762849324   T   T   T
 -0.1307385111810777  1.0256908750682951  0.4022939038771649   T   T   T
  0.3697995313028914  0.5292312916047213  0.4055323252164848   T   T   T
 -0.0610554655027137  0.9328332369110460  0.4059314647794839   T   T   T
  0.4396724638774108  0.4324750452605813  0.4074938352584953   T   T   T
  0.0123724791475787  0.8381399162330442  0.4050606631247105   T   T   T
  0.5095324377751110  0.3411148409211655  0.4036007923438703   T   T   T
  0.0792594815338327  0.7460071349362207  0.4025215038815852   T   T   T
  0.5780243954247829  0.2468920325408753  0.4031507125016498   T   T   T
  0.1486208506357837  0.6498488671239679  0.3947974213755837   T   T   T
  0.6494975591403738  1.1574157269052190  0.4036930719574288   T   T   T
 -0.1683036450521513  1.1894246349896604  0.4006680970862243   T   T   T
  0.3319844141744051  0.6884838054820054  0.4013706870629457   T   T   T
 -0.0984106719933833  1.0939559537714845  0.4063585225609347   T   T   T
  0.4007221404751709  0.5977845488555212  0.4058088303366611   T   T   T
 -0.0282828268793575  1.0024220919767541  0.4122866361103295   T   T   T
  0.4708780102995848  0.5030426393146282  0.4067639038280735   T   T   T
  0.0423281272060797  0.9088930556964246  0.4075837947416246   T   T   T
  0.5425155177746945  0.4109201906730001  0.4026292502933294   T   T   T
 -0.0849345696062479  0.2467900413306355  0.4058433337525439   T   T   T
  0.4135366301235083  0.7485215513948137  0.4052819622754383   T   T   T
 -0.0172783663277186  1.1494216996803399  0.4080817101312842   T   T   T
  0.4836465684409226  0.6530716973101192  0.4054034144869491   T   T   T
  0.0536985955483876  1.0598225912407953  0.4080254604666144   T   T   T
  0.5521560802789728  0.5620969717481720  0.4035328506987538   T   T   T
  0.1231095574236809  0.9680425508711854  0.4070201872767509   T   T   T
  0.6230368698427950  0.4703563862151461  0.4044788905339963   T   T   T
  0.1922724380897530  0.8703471211750203  0.4043551719124630   T   T   T
  0.6937196846972525  0.3737423708245534  0.4012309752138215   T   T   T
 -0.2370429206570603  0.2817506784872165  0.4004156595002500   T   T   T
  0.2617554621108230  0.7776798247671738  0.4017904031606134   T   T   T
 -0.0746108521362006  0.3980802097298806  0.4015122198191501   T   T   T
  0.4250868254436270  0.8969162566564916  0.4070264114671458   T   T   T
 -0.0055425537067394  0.2997023716122033  0.3989369405382627   T   T   T
  0.4954981281956535  0.8053162928822494  0.4087365660998971   T   T   T
  0.0654434208031461  1.2103291319644889  0.3995409813091583   T   T   T
  0.5672633344397884  0.7123778324348320  0.4064849324942370   T   T   T
  0.1335058970902074  1.1158746963087178  0.4072960312672358   T   T   T
  0.6346212919045585  0.6201670029646738  0.4093391534308051   T   T   T
  0.2032204627104387  1.0273612241895387  0.4041572340320865   T   T   T
  0.7022744985982634  0.5286441008277210  0.4063434779467874   T   T   T
 -0.2271204839734249  0.4338271860754894  0.4013414623741775   T   T   T
  0.2715924039332507  0.9312182073053525  0.4029424673314569   T   T   T
 -0.1538664538744710  0.3413837458347758  0.3999251854069334   T   T   T
  0.3421046499013451  0.8394840788256284  0.4012809997548777   T   T   T
  0.0071346891340453  0.4575030415765716  0.4001681369246036   T   T   T
  0.5067833440991920  0.9548488268917016  0.4105686784937759   T   T   T
  0.0756435355612029  0.3608605222710365  0.4000847862286708   T   T   T
  0.5773018926917045  0.8679200789535215  0.4140013990800597   T   T   T
  0.1457743196882800  0.2692244431868147  0.4046208526620514   T   T   T
  0.6472805628506439  0.7729749508611622  0.4147391449960141   T   T   T
  0.2148913486352109  1.1760273386750917  0.4061936168505023   T   T   T
  0.7150552000887067  0.6787256015806272  0.4089166720037768   T   T   T
 -0.2162468253680528  0.5831630614092906  0.4001119081815532   T   T   T
  0.2860790250464009  1.0830172175882786  0.4076273043416637   T   T   T
 -0.1439987393801587  0.4912612919392096  0.3995584544987534   T   T   T
  0.3545289830380324  0.9890125415641399  0.4054713105685581   T   T   T
  0.0875601086288582  0.5125245041170362  0.3983249514366760   T   T   T
  0.5880113671563331  1.0168323141007791  0.4142828655328306   T   T   T
  0.1569593957391352  0.4206869278888966  0.4011122116988199   T   T   T
  0.6574902542398909  0.9245607951421524  0.4112054942951329   T   T   T
  0.2272442779026600  0.3291349123081249  0.4024096015751348   T   T   T
  0.7253282296073916  0.8296916867746303  0.4066648221454814   T   T   T
 -0.2044644957102413  0.7378046584766662  0.4025022548473079   T   T   T
  0.2964105619236800  0.2340887410927516  0.4049448693865522   T   T   T
 -0.1347729306500066  0.6438468186721225  0.3987291579842078   T   T   T
  0.3678011766256916  1.1406850502732526  0.4041474656192776   T   T   T
 -0.0630777643714007  0.5525875853993557  0.3988977431113425   T   T   T
  0.4379610070893658  1.0496516690799305  0.4109914648532564   T   T   T
  0.1676108756211592  0.5696879075478058  0.3984066230363195   T   T   T
  0.6689149642967303  1.0722174491736061  0.4080663116231544   T   T   T
 -0.2609432894269739  0.9815562730527826  0.4098689398649144   T   T   T
  0.2389661412182507  0.4769069829966796  0.4041386177474627   T   T   T
 -0.1911115371928541  0.8871309940807310  0.4032094735057968   T   T   T
  0.3109399630418090  0.3847353768067781  0.4051549219326346   T   T   T
 -0.1199611050649333  0.7942938024923166  0.4003556392746827   T   T   T
  0.3782909373598792  0.2932947437266273  0.4076093859220185   T   T   T
 -0.0531571125145944  0.6999873172911745  0.4024870116081081   T   T   T
  0.4489715392059708  1.2019775225846268  0.4076400928338975   T   T   T
  0.0196958060877294  0.6045481026504826  0.3990860818140757   T   T   T
  0.5176440057481178  1.1045982509585994  0.4075222517928583   T   T   T
 -0.2481607859999254  1.1302879508326125  0.4036473785587944   T   T   T
  0.2489406875480637  0.6281188377795495  0.3997877751200588   T   T   T
 -0.1798205986790385  1.0391609599230862  0.4030299251875150   T   T   T
  0.3186650869736601  0.5383430251787190  0.4017801039855458   T   T   T
 -0.1101972812142360  0.9462145759048368  0.4023163390066556   T   T   T
  0.3900944097240012  0.4481827467667238  0.4066585429484220   T   T   T
 -0.0420254999367283  0.8493060475715294  0.4026933650225506   T   T   T
  0.4597980851910402  0.3532245107141008  0.4054764737882210   T   T   T
  0.0298065527279206  0.7538735135273350  0.4022812158602997   T   T   T
  0.5281196932029861  0.2566890147271909  0.4032935320307764   T   T   T
  0.0976572674070543  0.6636958782453521  0.3989998232057113   T   T   T
  0.5976866067819913  1.1649319426719213  0.4049414761194323   T   T   T
  0.1106662546235091  0.8178235592169690  0.4013808178700833   T   T   T
  0.6099330673996314  0.3152218697524714  0.4015321557481598   T   T   T
  0.1789329839175580  0.7217580640169621  0.3979335577500513   T   T   T
  0.6812949391363442  0.2264975746557034  0.4034288363688612   T   T   T
  0.3760130241498477  0.3546102219272607  0.2652693730099211   T   T   T
  0.8768876745698193  0.8514855993683481  0.2635303711783922   T   T   T
  0.2357136038355917  0.6519373885431146  0.2612575620986854   T   T   T
  0.7314366218589501  0.1401640798832455  0.2686787728732683   T   T   T
  0.1635643158713369  0.2887760330951116  0.2609782121797655   T   T   T
  0.6651711287899493  0.7816540771041178  0.2652167248277771   T   T   T
  0.5196548993562001  0.0738749673614974  0.2660914183374762   T   T   T
  1.0188937783049405  0.5684931217283293  0.2553572098990926   T   T   T
  0.4514516981869693  0.7200982057278537  0.2633975110925037   T   T   T
  0.9505844018893431  0.2107193533440770  0.2658684706589387   T   T   T
  0.3060561403861262  0.0041279086063747  0.2650541061530679   T   T   T
  0.8067046944153646  0.4907433393506331  0.2642270683167932   T   T   T
  0.5894941117049532  0.4235983598426888  0.2657728535216441   T   T   T
  1.0911181012298190  0.9271402239652446  0.2633633966877877   T   T   T
  0.5929902076589234  0.4206280236567250  0.1913150443562447   T   T   T
  1.0893980397456553  0.9352808479533886  0.1868084553386189   T   T   T
  0.3726624606327195  0.3593690929990825  0.1907892068761897   T   T   T
  0.8721660310607882  0.8572746150141662  0.1863983128312849   T   T   T
  0.2370124475282839  0.6481084761859325  0.1849191157521962   T   T   T
  0.7306290642463772  0.1388758610526760  0.1945080224180967   T   T   T
  0.1669164881660707  0.2896441766113149  0.1854374394252776   T   T   T
  0.6649174224665346  0.7802300294163501  0.1916199011828639   T   T   T
  0.5221978455118296  0.0754776487858961  0.1914639436153685   T   T   T
  1.0208602261316551  0.5677763974919113  0.1815166408739042   T   T   T
  0.4491349478409390  0.7163001162393049  0.1865347468229840   T   T   T
  0.9499882625765099  0.2141663441532609  0.1888325586950722   T   T   T
  0.3152858692487812  0.0029126362875247  0.1906168252257484   T   T   T
  0.8041408722702368  0.4902483571432950  0.1876516623074120   T   T   T
  0.3553359629352871  0.2387756543972653  0.2889780901383203   T   T   T
  0.8543041161826387  0.7307431491154794  0.2799392705992654   T   T   T
  0.2171311874259021  0.5335336234298266  0.2863125427840063   T   T   T
  0.7154129885174674  0.0193326980371477  0.2912715255317451   T   T   T
  0.5705938917206554  0.3051967219865649  0.2893396956143313   T   T   T
  1.0722828225778234  0.8094931433918591  0.2803034352081046   T   T   T
  0.1481530418618358  0.1725042239370518  0.2810317333660792   T   T   T
  0.6444157205089667  0.6639779641494302  0.2827499738373897   T   T   T
  0.5022614186466896 -0.0428206756554996  0.2857953046445947   T   T   T
  1.0009641067865858  0.4536925787689081  0.2819858539346167   T   T   T
  0.4379248046529777  0.5996896297553507  0.2822153628771005   T   T   T
  0.9286198529416364  0.0947742786432873  0.2815205852688323   T   T   T
  0.2849091262399872  0.8847185300776166  0.2870620500343100   T   T   T
  0.7872055582377152  0.3769304787830422  0.2895495120599715   T   T   T
  0.3276039711517192  0.4413929134447255  0.2881769721885655   T   T   T
  0.8277591574457529 -0.0643277752163516  0.2894779844672436   T   T   T
  0.1825239144148199  0.7386099300156296  0.2786601993292469   T   T   T
  0.6820072361909386  0.2268672988788128  0.2890542784232970   T   T   T
  0.1106537556430785  0.3698986120933633  0.2820659012000732   T   T   T
  0.6178011512705290  0.8726174934040052  0.2880741510918790   T   T   T
  0.4724085214127999  0.1590461755610860  0.2865555972571303   T   T   T
  0.9677631601056079  0.6529114226451427  0.2800856457960978   T   T   T
  0.5405774134986695  0.5169767712513794  0.2781947873606194   T   T   T
  1.0396236400400856  0.0167848207357461  0.2846550733198946   T   T   T
  0.4045623992633235  0.8006587297899560  0.2887826485121296   T   T   T
  0.8986511186223282  0.2856613343622936  0.2892176449846784   T   T   T
  0.2515905303445337  0.0866990146619373  0.2831607700822406   T   T   T
  0.7575383489856089  0.5761904610132501  0.2799392479905653   T   T   T
  0.4391036636520903  0.3940554668290121  0.2934904590034383   T   T   T
  0.9419170456858472  0.8785341028467648  0.2857457464132558   T   T   T
  0.3023965459310441  0.6820505099963499  0.2892898958424737   T   T   T
  0.8017333884856765  0.1673134601125399  0.2867148029656966   T   T   T
  0.2271927050675693  0.3255947892807042  0.2851206628901053   T   T   T
  0.7313067124933307  0.8099900462376785  0.2898463431456831   T   T   T
  0.5875664226329020  0.1002106353539494  0.2847188820599173   T   T   T
  1.0863592147386012  0.6070935957886340  0.2765481403113718   T   T   T
  0.5185823806606616  0.7521089763571521  0.2810286562076016   T   T   T
  1.0167705545544208  0.2419237080603755  0.2840396877854102   T   T   T
  0.3743056768187988  0.0299471271622964  0.2899951397304635   T   T   T
  0.8776996548032254  0.5193013379851846  0.2832905395175495   T   T   T
  0.1587651546173610 -0.0280153501442161  0.2808292775677800   T   T   T
  0.6566166574400655  0.4490948614582283  0.2907199269740099   T   T   T
  0.4220446325939129  0.2717830164380610  0.1740997899870466   T   T   T
  0.9207826645466742  0.7739062736926146  0.1648914115755661   T   T   T
  0.2834638753401125  0.5570072172545861  0.1726762220092503   T   T   T
  0.7816743016479371  0.0525221558994569  0.1793919931917100   T   T   T
  0.1396416858063523  0.8468837117175683  0.1677452833215765   T   T   T
  0.6389504353013777  0.3290320199962011  0.1725489948341569   T   T   T
  0.2191959017728642  0.2086146257714238  0.1702642455378905   T   T   T
  0.7127806525050934  0.6907977768087931  0.1742711075847141   T   T   T
  0.5717236428495962 -0.0117883321471377  0.1694982423930178   T   T   T
  1.0714983042170430  0.4808670125862334  0.1715384854319713   T   T   T
  0.4958012418312909  0.6281227899574220  0.1659995500395048   T   T   T
  0.9927870647259418  0.1193751637715979  0.1714611602834812   T   T   T
  0.3644867174105565  0.9157680748318017  0.1740841020057496   T   T   T
  0.8545783300443776  0.4057209247078422  0.1728760398360715   T   T   T
  0.3962584323464705  0.4722592544097706  0.1721287706090148   T   T   T
  0.8907413282274508 -0.0265444599254939  0.1699845541310659   T   T   T
  0.2591474093156552  0.7588318588241000  0.1641639868454813   T   T   T
  0.7503286812785990  0.2570636842295975  0.1813529504674768   T   T   T
  0.1853699427838126  0.4088800091373993  0.1699384099237057   T   T   T
  0.6788846293706851  0.8964937602981966  0.1751742858983956   T   T   T
  0.5367847316946252  0.1891516322631061  0.1762180805644401   T   T   T
  1.0427002732483666  0.6833189191884378  0.1622169333469758   T   T   T
  0.1069020335542051  0.0562386928922384  0.1730257768244433   T   T   T
  0.6137636557048197  0.5377558525826632  0.1722075483231472   T   T   T
  0.4741583816326785  0.8275425034426909  0.1700462457406308   T   T   T
  0.9659632087402943  0.3300833171800771  0.1660348960243807   T   T   T
  0.3314546559063065  0.1171064805151959  0.1679971063473043   T   T   T
  0.8247123479750547  0.6024896321050794  0.1698746697837818   T   T   T
  0.5249135136869043  0.3980243227410431  0.1697078140971633   T   T   T
  1.0239178809568670  0.8955075445782203  0.1731722738205343   T   T   T
  0.3079493865280640  0.3281267414308878  0.1724154145216869   T   T   T
  0.8042698595107320  0.8241966488002763  0.1747496006336287   T   T   T
  0.1675923467766897  0.6161327845503382  0.1728158246887694   T   T   T
  0.6629415735937310  0.1098100747686115  0.1732560889914859   T   T   T
  0.0988789955631137  0.2649245263468189  0.1650158809885479   T   T   T
  0.5969228158169454  0.7521555784133137  0.1730254566902308   T   T   T
  0.4544652727742332  0.0364094026291539  0.1782278159784257   T   T   T
  0.9503805106891237  0.5384333376371078  0.1676469406984806   T   T   T
  0.3812137910971015  0.6907259269106903  0.1737512374080078   T   T   T
  0.8834487083726862  0.1797890497282733  0.1731085238410134   T   T   T
  0.2460717891037782 -0.0295940780896234  0.1737628889049170   T   T   T
  0.7398995271900413  0.4599314658069206  0.1662691370312507   T   T   T
  0.3553945828476248  0.5831053820314367  0.2790678864049917   T   T   T
  0.8474421675659934  0.0664833767298955  0.2721355090639274   T   T   T
  0.2791737054271363  0.2089925944893697  0.2782564558723817   T   T   T
  0.7787747708340041  0.7044947734683700  0.2677213193283140   T   T   T
  0.1398293917268512  0.5070009727641978  0.2706490509792926   T   T   T
  0.6424114900760470 -0.0040198274838172  0.2790453596046363   T   T   T
  0.4909951224581613  0.2988207306341377  0.2851413177191617   T   T   T
  0.9943382167698807  0.7780320053722662  0.2624086204363821   T   T   T
  0.5711784431343957  0.6467228500924986  0.2659835367608028   T   T   T
  1.0681099668214320  0.1464300581802234  0.2741929640329047   T   T   T
  0.4276876483446330  0.9294431222067389  0.2713083553426238   T   T   T
  0.9265847413474688  0.4090446735696818  0.2679748189695008   T   T   T
  0.2099114342810841  0.8675482456159742  0.2722714435043067   T   T   T
  0.7092487845769885  0.3527955656813020  0.2731481032513562   T   T   T
  0.4780697849741327  0.5014672737427874  0.2103906442121242   T   T   T
  0.9706534012080097 -0.0073431896951411  0.2241927272440145   T   T   T
  0.2585854896520094  0.4310967648494162  0.2233976444941913   T   T   T
  0.7605628680676616 -0.0816032254883160  0.2267693458540786   T   T   T
  0.1141523592136660  0.7174000165147191  0.2103665131350991   T   T   T
  0.6127606145584819  0.2119892276561768  0.2215274630261874   T   T   T
  0.1890342537240676  0.0784311586125890  0.2122997494342558   T   T   T
  0.6874108493332283  0.5667441025134177  0.2217943729310624   T   T   T
  0.5507970899175315  0.8637961173787975  0.2201739277636065   T   T   T
  1.0456985327158517  0.3535576459255367  0.2147286654196462   T   T   T
  0.3999960144126091  0.1449492574839951  0.2203351656103162   T   T   T
  0.8990149184104177  0.6471190118728523  0.2172082393282285   T   T   T
  0.3273680969872598  0.7900671416166005  0.2201003072520085   T   T   T
  0.8306506611678852  0.2763286844751218  0.2245131514361351   T   T   T
 
 -0.47777228E-02 -0.19910988E-02  0.24259922E-02
 -0.62635055E-02  0.44890786E-03 -0.67019911E-03
  0.18798344E-02  0.42810383E-02  0.20264045E-03
  0.80676625E-02 -0.18572845E-03 -0.45528005E-02
 -0.67355817E-02  0.58300674E-03 -0.23434575E-02
  0.39793848E-02 -0.14263581E-02  0.39321867E-02
  0.21072964E-02 -0.20386105E-02  0.37695063E-02
 -0.55592637E-03 -0.42704269E-02 -0.30738711E-02
  0.17838935E-02 -0.31840241E-02  0.16939797E-03
  0.49029805E-02  0.18203878E-03  0.65955523E-02
  0.40465001E-02  0.43538302E-02  0.24226289E-02
  0.10695439E-02  0.11276747E-02 -0.35655318E-03
  0.32266643E-02  0.86031353E-02  0.44681925E-02
  0.78383420E-02  0.35891083E-03  0.17035440E-02
 -0.22031734E-02 -0.40863909E-02  0.64572826E-02
  0.83970411E-02 -0.16057291E-03  0.42216226E-02
  0.82762253E-02 -0.31179685E-02 -0.64772697E-02
 -0.67057257E-02  0.18041133E-02  0.63813263E-02
 -0.23254437E-02 -0.21809243E-02 -0.22394230E-02
 -0.43211023E-03  0.11701567E-02  0.20074166E-02
 -0.38726310E-02  0.99524991E-03  0.11718808E-02
 -0.18035267E-02  0.11469196E-01  0.17749088E-02
  0.50266194E-03  0.16723612E-02 -0.40303906E-02
 -0.13135401E-01 -0.43987890E-02 -0.34142668E-02
 -0.16758458E-02  0.29385221E-03 -0.16282109E-02
 -0.31965747E-02 -0.84577348E-02  0.87606412E-02
 -0.47433520E-02 -0.10491620E-02  0.56879083E-02
 -0.60243585E-02 -0.37613977E-03 -0.86497616E-02
  0.32592515E-03  0.60771960E-02 -0.42946504E-02
 -0.11423908E-02  0.67361747E-02 -0.30574551E-02
 -0.28891506E-03  0.55893866E-03 -0.16873776E-02
 -0.45154474E-02 -0.74743922E-02 -0.31117251E-02
  0.59238475E-04  0.51346888E-02 -0.28113784E-02
  0.70190256E-03 -0.68066167E-02 -0.21108785E-02
  0.58179622E-02 -0.17394942E-02  0.36128440E-02
 -0.19922489E-02  0.19248960E-02 -0.16539289E-02
  0.57645214E-02 -0.19204875E-02  0.53814891E-03
 -0.15803396E-02 -0.10942319E-02 -0.28407446E-02
 -0.37013397E-02  0.74257265E-02  0.15677551E-03
  0.12782339E-02  0.36959232E-02 -0.54945157E-02
  0.16519188E-02  0.70555499E-02 -0.22386205E-02
  0.30819006E-02  0.48281030E-02  0.40186319E-02
  0.14653047E-02 -0.14733474E-02 -0.18689185E-04
  0.17067715E-02  0.62278037E-03 -0.10733146E-02
  0.44104336E-02 -0.18291507E-03 -0.41782934E-02
  0.13137822E-02 -0.55430251E-02 -0.19734364E-02
  0.12331131E-01  0.41478382E-02  0.27526472E-02
 -0.31122564E-03 -0.58903252E-02  0.74543681E-02
  0.10371196E-01  0.30635111E-02 -0.10727918E-01
 -0.43999418E-02 -0.59887310E-03 -0.53689775E-02
  0.57940723E-03 -0.72534236E-03  0.16577188E-02
  0.20957320E-02 -0.33344923E-02  0.22317327E-02
 -0.39575998E-02  0.94046074E-03  0.14998714E-02
 -0.59362117E-02 -0.16678280E-02 -0.82202280E-02
 -0.22598346E-02 -0.33201393E-03  0.28250387E-02
 -0.25230178E-02  0.70515219E-03 -0.17298568E-02
  0.47512030E-02 -0.26390540E-04  0.72678499E-03
 -0.43669012E-02 -0.51351985E-04  0.24646582E-02
 -0.26032928E-02 -0.25057300E-02 -0.31848447E-03
  0.35541207E-02 -0.42967561E-02 -0.32256252E-02
  0.34018899E-02 -0.34889996E-02  0.71091454E-02
  0.32110705E-02 -0.43639828E-02 -0.16489315E-02
 -0.30811517E-02  0.72778416E-03  0.15418199E-02
 -0.37401220E-02 -0.65532053E-02  0.13569308E-02
  0.60134952E-02 -0.21610587E-02 -0.13446544E-02
 -0.73597132E-02 -0.16332266E-02 -0.16889287E-02
 -0.61704806E-02  0.14086932E-02 -0.32617066E-02
 -0.22522567E-02  0.43580012E-02 -0.18609916E-02
 -0.39087422E-03 -0.58724557E-02  0.23324121E-02
 -0.60999726E-02  0.36568164E-03 -0.34390564E-02
 -0.72679947E-02 -0.15493158E-02  0.11851980E-02
  0.30962425E-02 -0.16922727E-02  0.50526515E-02
  0.15346506E-02  0.46233737E-02 -0.11291879E-02
 -0.22205740E-02 -0.67165367E-02  0.98441351E-03
  0.64820128E-02 -0.75199542E-02 -0.60706794E-03
  0.17580206E-02  0.68906531E-02  0.37369766E-02
  0.94207607E-02  0.23780145E-02  0.44360922E-02
 -0.11941396E-01 -0.17902669E-02 -0.68175708E-02
  0.11114540E-02  0.71396637E-03 -0.49052064E-02
 -0.20648040E-02  0.41953022E-02 -0.23602492E-03
 -0.84551829E-02 -0.67848994E-02  0.22297217E-02
  0.79594219E-02  0.13378696E-02  0.13906126E-01
 -0.39248453E-02 -0.35702469E-02 -0.27627515E-02
  0.30409505E-02 -0.45773155E-02 -0.96257169E-03
  0.21342680E-02 -0.18875822E-02 -0.44227014E-02
 -0.87408906E-02 -0.91999310E-02 -0.24263716E-02
 -0.13527319E-02  0.88565010E-02  0.78271749E-02
 -0.13863431E-02  0.49768386E-02  0.85385130E-03
 -0.11887740E-02  0.25380742E-02  0.27701145E-03
 -0.65664070E-03  0.48718531E-02  0.22814096E-02
 -0.49353329E-02 -0.10397809E-01 -0.14781400E-02
 -0.42716151E-02  0.27888059E-03 -0.41748822E-03
  0.19987934E-02  0.60437323E-02  0.35737327E-02
 -0.10748530E-01  0.88808099E-02  0.40766179E-02
  0.63197894E-02 -0.26429066E-02 -0.68981476E-02
 -0.47780194E-02  0.10271557E-01 -0.34405373E-02
  0.44891769E-02 -0.56221573E-02 -0.63170183E-03
  0.33915954E-02  0.50340782E-03 -0.42868610E-03
  0.38163765E-02 -0.28761863E-02  0.56055732E-02
  0.29800715E-03 -0.20597540E-02 -0.42147275E-02
 -0.68641977E-02  0.26241121E-02 -0.10186155E-01
  0.37947111E-02  0.54666880E-02  0.10884402E-02
 -0.67570983E-02 -0.16762253E-02 -0.38147208E-03
 -0.52469419E-02 -0.74300201E-02 -0.31559426E-03
  0.27976131E-03  0.21992080E-02  0.15910021E-01
  0.10795709E-02 -0.19061016E-02  0.20640810E-02
  0.37867715E-02 -0.25792178E-02 -0.37146357E-04
  0.16183646E-02  0.32559938E-02 -0.13340115E-03
  0.21124146E-02  0.60887102E-02  0.91485482E-03
 -0.17593714E-02  0.36979107E-02 -0.19164675E-02
  0.22300658E-02 -0.49793489E-02 -0.16155865E-02
 -0.69256665E-03  0.13837186E-02 -0.17684978E-02
 -0.42263423E-03  0.38812186E-02  0.81776696E-02
  0.63817186E-03 -0.65341363E-02 -0.58174128E-02
  0.57429940E-02  0.47828284E-02 -0.21213893E-02
 -0.39203228E-02 -0.25287532E-03  0.32159310E-02
  0.33131318E-02  0.96325034E-02 -0.24212583E-02
 -0.37525034E-02  0.26281261E-03  0.57082063E-02
 -0.40839961E-02  0.25151636E-02 -0.50755780E-02
  0.19301377E-02 -0.12800482E-02  0.19248635E-02
 -0.33695170E-02 -0.52583410E-02  0.70288893E-02
  0.13336462E-02  0.44139957E-03 -0.65076095E-02
 -0.18191227E-02  0.15286982E-02 -0.15735195E-02
 -0.67944759E-02 -0.90473776E-03  0.32809284E-02
  0.39474935E-02 -0.19092908E-03  0.21407840E-02
 -0.88056111E-02 -0.54627425E-02  0.42966199E-02
  0.10475758E-01 -0.31230944E-02  0.72345190E-02
  0.77779285E-02  0.24897914E-02  0.13207268E-02
  0.54256365E-02 -0.32265994E-02 -0.48206694E-02
 -0.22186102E-02 -0.70894256E-03  0.10940696E-02
 -0.32256943E-02 -0.74104896E-03 -0.41175566E-02
 -0.57436977E-02  0.12390756E-01  0.41968702E-02
  0.80870550E-03  0.12349670E-02  0.21028500E-02
 -0.87721522E-03 -0.40339743E-02 -0.12265940E-01
  0.41883780E-02 -0.12899348E-02 -0.15468284E-02
 -0.60636773E-02  0.15819294E-03  0.12471417E-03
 -0.16485064E-02  0.21889848E-02 -0.32819748E-02
 -0.15895808E-02 -0.18479124E-02 -0.50638443E-02
 -0.43734431E-03 -0.74690405E-02  0.75915306E-02
  0.11027666E-02  0.31784232E-02  0.25202745E-02