STEM = surface
LDIPOL = .TRUE.
IDIPOL = 3
#DIPOL = 0.48460757 0.28437693 0.33106117
SIGMA = 0.1
#EFIELD = -0.005 #1ev/A=1V/A
IBRION = 0
NPAR=4
ALGO = Fast
SMASS = 1 #0.036
#MDALGO = 2
ENCUT = 500
TEBEG = 290
TEEND = 290
ISIF = 2
LREAL = .T.
ISMEAR = 0
ISYM = 0
PREC = Normal
NSW = 100000
POTIM = 1
EDIFF = 1E-04
#GGA = PE
LWAVE = .FALSE.
LCHARG = .FALSE.
IVDW = 11
IALGO = 48
MDALGO=2
#ANDERSEN_PROB=0.0

#Machine learning paramters
ML_LMLFF = .TRUE.
ML_ISTART = 2
#ML_CX = -0.1
#ML_MB = 3000
