carbon_up_CONTCAR_supper 
1.0 
28.003300 0.000000 0.000000 
0.000000 16.167700 0.000000 
0.000000 0.000000 30.000000 
C P S Cu In 
172 28 84 14 14 
Selective Dynamics
Direct 
0.080720 0.058440 0.401810 T T T 
0.580720 0.558440 0.401810 T T T 
0.151700 0.966370 0.401830 T T T 
0.651700 0.466370 0.401830 T T T 
0.220540 0.872110 0.401780 T T T 
0.720540 0.372110 0.401780 T T T 
0.290300 0.778630 0.404280 T T T 
0.790300 0.278630 0.404280 T T T 
0.360960 0.685280 0.403930 T T T 
0.860960 0.185280 0.403930 T T T 
0.430420 0.591860 0.401810 T T T 
0.930420 0.091860 0.401810 T T T 
0.000110 0.000580 0.403090 T T T 
0.500110 0.500580 0.403090 T T T 
0.162160 0.115910 0.403930 T T T 
0.662160 0.615910 0.403930 T T T 
0.232860 0.022580 0.404110 T T T 
0.732860 0.522580 0.404110 T T T 
0.302750 0.930470 0.401820 T T T 
0.802750 0.430470 0.401820 T T T 
0.372280 0.837990 0.404110 T T T 
0.872280 0.337990 0.404110 T T T 
0.440960 0.744370 0.401830 T T T 
0.940960 0.244370 0.401830 T T T 
0.011190 0.150330 0.401920 T T T 
0.511190 0.650330 0.401920 T T T 
0.244170 0.175230 0.404280 T T T 
0.744170 0.675230 0.404280 T T T 
0.313860 0.080630 0.401820 T T T 
0.813860 0.580630 0.401820 T T T 
0.383380 0.988900 0.401820 T T T 
0.883380 0.488900 0.401820 T T T 
0.453670 0.894750 0.401780 T T T 
0.953670 0.394750 0.401780 T T T 
0.022810 0.301850 0.404360 T T T 
0.522810 0.801850 0.404360 T T T 
0.092640 0.210810 0.401820 T T T 
0.592640 0.710810 0.401820 T T T 
0.325790 0.233130 0.401780 T T T 
0.825790 0.733130 0.401780 T T T 
0.394860 0.139430 0.404110 T T T 
0.894860 0.639430 0.404110 T T T 
0.465530 0.046140 0.404280 T T T 
0.965530 0.546140 0.404280 T T T 
0.034560 0.454410 0.404350 T T T 
0.534560 0.954410 0.404350 T T T 
0.104870 0.360860 0.404320 T T T 
0.604870 0.860860 0.404320 T T T 
0.174090 0.266750 0.401870 T T T 
0.674090 0.766750 0.401870 T T T 
0.407330 0.289260 0.401830 T T T 
0.907330 0.789260 0.401830 T T T 
0.476870 0.198810 0.403930 T T T 
0.976870 0.698810 0.403930 T T T 
0.046330 0.605490 0.401870 T T T 
0.546330 0.105490 0.401870 T T T 
0.116610 0.511180 0.401810 T T T 
0.616610 0.011180 0.401810 T T T 
0.186100 0.419330 0.401810 T T T 
0.686100 0.919330 0.401810 T T T 
0.255510 0.324640 0.404350 T T T 
0.755510 0.824640 0.404350 T T T 
0.488860 0.349720 0.401810 T T T 
0.988860 0.849720 0.401810 T T T 
0.059080 0.755630 0.401820 T T T 
0.559080 0.255630 0.401820 T T T 
0.127990 0.662260 0.404320 T T T 
0.627990 0.162260 0.404320 T T T 
0.197280 0.569490 0.401810 T T T 
0.697280 0.069490 0.401810 T T T 
0.267140 0.476870 0.404320 T T T 
0.767140 0.976870 0.404320 T T T 
0.337670 0.383280 0.404370 T T T 
0.837670 0.883280 0.404370 T T T 
0.069560 0.908050 0.401920 T T T 
0.569560 0.408050 0.401920 T T T 
0.139520 0.814860 0.404370 T T T 
0.639520 0.314860 0.404370 T T T 
0.209930 0.720950 0.404350 T T T 
0.709930 0.220950 0.404350 T T T 
0.279580 0.627760 0.401870 T T T 
0.779580 0.127760 0.401870 T T T 
0.348270 0.533560 0.401820 T T T 
0.848270 0.033560 0.401820 T T T 
0.419250 0.441630 0.401920 T T T 
0.919250 0.941630 0.401920 T T T 
0.100480 0.977440 0.404110 T T T 
0.600480 0.477440 0.404110 T T T 
0.171170 0.884080 0.403920 T T T 
0.671170 0.384080 0.403920 T T T 
0.240680 0.789170 0.401830 T T T 
0.740680 0.289160 0.401830 T T T 
0.310530 0.698150 0.404370 T T T 
0.810530 0.198150 0.404370 T T T 
0.181630 0.033630 0.401830 T T T 
0.681630 0.533630 0.401830 T T T 
0.252620 0.941570 0.401800 T T T 
0.752620 0.441570 0.401800 T T T 
0.322140 0.849680 0.401930 T T T 
0.822140 0.349680 0.401930 T T T 
0.392370 0.755630 0.401830 T T T 
0.892370 0.255630 0.401830 T T T 
0.461050 0.662000 0.404110 T T T 
0.961050 0.162000 0.404110 T T T 
0.030590 0.069570 0.401780 T T T 
0.530590 0.569570 0.401780 T T T 
0.193810 0.185130 0.404380 T T T 
0.693810 0.685130 0.404380 T T T 
0.263770 0.091940 0.401920 T T T 
0.763770 0.591940 0.401920 T T T 
0.333320 0.999970 0.404140 T T T 
0.833320 0.499970 0.404140 T T T 
0.402910 0.908140 0.401800 T T T 
0.902910 0.408140 0.401800 T T T 
0.472370 0.814720 0.403920 T T T 
0.972370 0.314720 0.403920 T T T 
0.043030 0.221350 0.404300 T T T 
0.543030 0.721350 0.404300 T T T 
0.112790 0.127880 0.401780 T T T 
0.612790 0.627880 0.401780 T T T 
0.274240 0.244400 0.401830 T T T 
0.774240 0.744400 0.401830 T T T 
0.344480 0.150290 0.401800 T T T 
0.844480 0.650290 0.401800 T T T 
0.414090 0.058370 0.401930 T T T 
0.914090 0.558370 0.401930 T T T 
0.485080 0.966440 0.401830 T T T 
0.985080 0.466440 0.401830 T T T 
0.053760 0.372230 0.401880 T T T 
0.553760 0.872230 0.401880 T T T 
0.123260 0.278880 0.403930 T T T 
0.623260 0.778880 0.403930 T T T 
0.356460 0.301200 0.403920 T T T 
0.856460 0.801200 0.403920 T T T 
0.426000 0.210730 0.401830 T T T 
0.926000 0.710730 0.401830 T T T 
0.495660 0.116720 0.404380 T T T 
0.995660 0.616720 0.404380 T T T 
0.066210 0.523150 0.404370 T T T 
0.566210 0.023150 0.404370 T T T 
0.136050 0.430500 0.401810 T T T 
0.636050 0.930500 0.401810 T T T 
0.205310 0.337750 0.404370 T T T 
0.705310 0.837750 0.404370 T T T 
0.438480 0.360570 0.404110 T T T 
0.938480 0.860570 0.404110 T T T 
0.007540 0.766870 0.401780 T T T 
0.507540 0.266870 0.401780 T T T 
0.077810 0.675660 0.403930 T T T 
0.577810 0.175660 0.403930 T T T 
0.147230 0.580670 0.401810 T T T 
0.647230 0.080670 0.401810 T T T 
0.216720 0.488820 0.401810 T T T 
0.716720 0.988820 0.401810 T T T 
0.287000 0.394520 0.401880 T T T 
0.787000 0.894520 0.401880 T T T 
0.019480 0.919410 0.401780 T T T 
0.519480 0.419410 0.401780 T T T 
0.089160 0.824780 0.404300 T T T 
0.589160 0.324780 0.404300 T T T 
0.159240 0.733240 0.401880 T T T 
0.659240 0.233240 0.401880 T T T 
0.228470 0.639090 0.404370 T T T 
0.728470 0.139090 0.404370 T T T 
0.298930 0.545460 0.403930 T T T 
0.798930 0.045460 0.403930 T T T 
0.367810 0.453870 0.404300 T T T 
0.867810 0.953870 0.404300 T T T 
0.379660 0.605250 0.401780 T T T 
0.879660 0.105250 0.401780 T T T 
0.449950 0.511130 0.401780 T T T 
0.949950 0.011130 0.401780 T T T 
0.283840 0.428200 0.263150 T T T 
0.783840 0.928200 0.263150 T T T 
0.143970 0.711650 0.263160 T T T 
0.643970 0.211650 0.263160 T T T 
0.072190 0.360110 0.263160 T T T 
0.572190 0.860110 0.263160 T T T 
0.428200 0.140000 0.262850 T T T 
0.928200 0.640000 0.262850 T T T 
0.355900 0.787680 0.262850 T T T 
0.855900 0.287680 0.262850 T T T 
0.215890 0.072290 0.262830 T T T 
0.715890 0.572290 0.262830 T T T 
0.499990 0.499970 0.265770 T T T 
0.999990 0.999970 0.265770 T T T 
0.499990 0.499960 0.190100 T T T 
0.999990 0.999960 0.190100 T T T 
0.283640 0.427920 0.189180 T T T 
0.783640 0.927920 0.189180 T T T 
0.144200 0.711490 0.189180 T T T 
0.644200 0.211490 0.189180 T T T 
0.072150 0.360570 0.189180 T T T 
0.572150 0.860570 0.189180 T T T 
0.428890 0.142600 0.188210 T T T 
0.928890 0.642600 0.188210 T T T 
0.356860 0.785340 0.188200 T T T 
0.856860 0.285340 0.188200 T T T 
0.214220 0.072070 0.188170 T T T 
0.714220 0.572070 0.188170 T T T 
0.267780 0.310910 0.285060 T T T 
0.767780 0.810910 0.285060 T T T 
0.126610 0.594640 0.284690 T T T 
0.626610 0.094640 0.284690 T T T 
0.482570 0.381980 0.285090 T T T 
0.982570 0.881980 0.285090 T T T 
0.054680 0.242800 0.284660 T T T 
0.554680 0.742800 0.284660 T T T 
0.411050 0.022680 0.284650 T T T 
0.911050 0.522680 0.284650 T T T 
0.338780 0.670570 0.284700 T T T 
0.838780 0.170570 0.284700 T T T 
0.198740 0.954990 0.284830 T T T 
0.698740 0.454990 0.284830 T T T 
0.234020 0.512750 0.284690 T T T 
0.734020 0.012750 0.284690 T T T 
0.094050 0.796540 0.284660 T T T 
0.594050 0.296540 0.284660 T T T 
0.021560 0.442850 0.285050 T T T 
0.521560 0.942850 0.285050 T T T 
0.378120 0.224380 0.284850 T T T 
0.878120 0.724380 0.284850 T T T 
0.449710 0.585140 0.285090 T T T 
0.949710 0.085140 0.285090 T T T 
0.305810 0.872050 0.284640 T T T 
0.805810 0.372050 0.284640 T T T 
0.165890 0.156530 0.284710 T T T 
0.665890 0.656530 0.284710 T T T 
0.351250 0.460620 0.284660 T T T 
0.851250 0.960620 0.284660 T T T 
0.210660 0.746190 0.285040 T T T 
0.710660 0.246190 0.285040 T T T 
0.139370 0.392590 0.284690 T T T 
0.639370 0.892590 0.284690 T T T 
0.495310 0.172880 0.284700 T T T 
0.995310 0.672880 0.284700 T T T 
0.423120 0.820600 0.284850 T T T 
0.923120 0.320600 0.284850 T T T 
0.283120 0.105220 0.284640 T T T 
0.783120 0.605220 0.284640 T T T 
0.067700 0.032840 0.285110 T T T 
0.567700 0.532840 0.285110 T T T 
0.333640 0.343810 0.171790 T T T 
0.833640 0.843810 0.171790 T T T 
0.194340 0.627580 0.171820 T T T 
0.694340 0.127580 0.171820 T T T 
0.049870 0.915530 0.172060 T T T 
0.549870 0.415530 0.172060 T T T 
0.121920 0.276060 0.171980 T T T 
0.621920 0.776060 0.171980 T T T 
0.477630 0.055590 0.171600 T T T 
0.977630 0.555590 0.171600 T T T 
0.405180 0.696140 0.171860 T T T 
0.905180 0.196140 0.171860 T T T 
0.261820 0.983740 0.171240 T T T 
0.761820 0.483740 0.171240 T T T 
0.300990 0.544830 0.171980 T T T 
0.800990 0.044830 0.171980 T T T 
0.161240 0.828540 0.171780 T T T 
0.661240 0.328540 0.171780 T T T 
0.089070 0.477700 0.171830 T T T 
0.589070 0.977700 0.171830 T T T 
0.449350 0.259680 0.171880 T T T 
0.949350 0.759680 0.171880 T T T 
0.017320 0.117000 0.172080 T T T 
0.517320 0.617000 0.172080 T T T 
0.377230 0.900880 0.171260 T T T 
0.877230 0.400880 0.171260 T T T 
0.233350 0.188670 0.171570 T T T 
0.733350 0.688670 0.171570 T T T 
0.432830 0.467420 0.172060 T T T 
0.932830 0.967420 0.172060 T T T 
0.216610 0.394710 0.171830 T T T 
0.716610 0.894710 0.171830 T T T 
0.077080 0.679050 0.171980 T T T 
0.577080 0.179050 0.171980 T T T 
0.005100 0.327610 0.171790 T T T 
0.505100 0.827610 0.171790 T T T 
0.360930 0.115400 0.171270 T T T 
0.860930 0.615400 0.171270 T T T 
0.288980 0.755740 0.171600 T T T 
0.788980 0.255740 0.171600 T T T 
0.145470 0.044140 0.171850 T T T 
0.645470 0.544140 0.171850 T T T 
0.260540 0.644280 0.276740 T T T 
0.760540 0.144280 0.276740 T T T 
0.191870 0.287050 0.276730 T T T 
0.691870 0.787050 0.276730 T T T 
0.047590 0.568670 0.276730 T T T 
0.547590 0.068670 0.276730 T T T 
0.403720 0.355580 0.276660 T T T 
0.903720 0.855580 0.276660 T T T 
0.475930 0.716620 0.276660 T T T 
0.975930 0.216620 0.276660 T T T 
0.333330 0.999990 0.276630 T T T 
0.833330 0.499990 0.276630 T T T 
0.120350 0.927800 0.276660 T T T 
0.620350 0.427800 0.276660 T T T 
0.379360 0.568670 0.218780 T T T 
0.879360 0.068670 0.218780 T T T 
0.166710 0.500030 0.217730 T T T 
0.666710 0.000030 0.217730 T T T 
0.026000 0.784720 0.218770 T T T 
0.526000 0.284720 0.218770 T T T 
0.094670 0.146560 0.218840 T T T 
0.594670 0.646560 0.218840 T T T 
0.452900 0.927580 0.219220 T T T 
0.952900 0.427580 0.219220 T T T 
0.309730 0.215510 0.219220 T T T 
0.809730 0.715510 0.219220 T T T 
0.237370 0.856900 0.219190 T T T 
0.737370 0.356900 0.219190 T T T
