BNPOSCARsuf1                            
   1.00000000000000     
     2.5115814851443150    0.0000011396717872    0.0000000000000000
    -1.2557897554979254    2.1750939549639030    0.0000000000000000
     0.0000000000000000    0.0000000000000000   10.0000000000000000
   B    N 
     1     1
Direct
  0.6666669891526453  0.3333330407572959  0.4999999999777316
  0.3333330398473535  0.6666669882427030  0.5000000000222684
 
  0.00000000E+00  0.00000000E+00  0.00000000E+00
  0.00000000E+00  0.00000000E+00  0.00000000E+00
