353450                                  
    1.000000000000000     
    14.1267069999999997    8.1560240000000004    0.0000000000000000
     0.0000000000000000   16.3120989999999999    0.0000000000000000
     0.0000000000000000    0.0000000000000000   30.0000000000000000
   B    N    P    S    Cu   In
    43    43    14    42     7     7
Selective dynamics
Direct
  0.1241466672527736  0.0774503059903324  0.4026158692735819   T   T   T
  0.2874274675585156  0.0542217434181893  0.4037483537349473   T   T   T
  0.4470693805100439  0.0321408786494430  0.4022759052700167   T   T   T
  0.6112883019864768  0.0084879890066247  0.4019601713832515   T   T   T
  0.1460640592417235  0.2187983711860682  0.4030470531802592   T   T   T
  0.3102131707360698  0.1914739484762507  0.4022668758734866   T   T   T
  0.4750575974407525  0.1691690232813770  0.4018663129553985   T   T   T
  0.6352619134803561  0.1462321666208695  0.4037028980993966   T   T   T
  0.7991931712598870  0.1235218452298241  0.4024566066432271   T   T   T
  0.9633703583770057  0.0998299312915805  0.4041650318385805   T   T   T
  0.0085346690991983  0.3802689320128394  0.4019553325016574   T   T   T
  0.1691708407684800  0.3557748080361520  0.4018700950964416   T   T   T
  0.3333341125966172  0.3333336533766200  0.4019423622955856   T   T   T
  0.4982695967049366  0.3102598057510164  0.4022518007568010   T   T   T
  0.6583410303113411  0.2874410370623295  0.4038125966967243   T   T   T
  0.8218768221236417  0.2652258345416456  0.4019270216345845   T   T   T
  0.9828844484643966  0.2418316419532189  0.4040251544778570   T   T   T
  0.0321710312532275  0.5207520398035044  0.4022727105200374   T   T   T
  0.1914538122490796  0.4982591435073473  0.4022506737328087   T   T   T
  0.3557734195456490  0.4750537585024475  0.4018658978810308   T   T   T
  0.5207818286269017  0.4470815375557464  0.4022772198838709   T   T   T
  0.6828396686391969  0.4273144230996735  0.4031492590926575   T   T   T
  0.8449142807723504  0.4046746337849001  0.4034104049429104   T   T   T
  0.0542151006189329  0.6582926454885580  0.4038261090174373   T   T   T
  0.2188625093743397  0.6347906177641249  0.4031390347353820   T   T   T
  0.3802488106930184  0.6112422130148687  0.4019687438071955   T   T   T
  0.5432757563856043  0.5883889041455816  0.4023783599661854   T   T   T
  0.7053315031479244  0.5673500597130001  0.4033198155395112   T   T   T
  0.8670357684443744  0.5442250560594744  0.4020216002781609   T   T   T
  0.0775217179538643  0.7987127949965753  0.4019082576222033   T   T   T
  0.2407565122322310  0.7741333588096992  0.4033555424577955   T   T   T
  0.4028586334864954  0.7516553301176003  0.4043217922471811   T   T   T
  0.5656638110679495  0.7270916051301057  0.4036560939769203   T   T   T
  0.7258997075306652  0.7082693438453660  0.4041901459374060   T   T   T
  0.8899982646777360  0.6814567406306935  0.4036237131833502   T   T   T
  0.1010369954605181  0.9369772729426700  0.4036040615753294   T   T   T
  0.2652586977215137  0.9127696797953391  0.4019229535657871   T   T   T
  0.4273196808545165  0.8899068756743276  0.4031177383886870   T   T   T
  0.5885225162321959  0.8683159910735867  0.4019350349063586   T   T   T
  0.7531028447814236  0.8449032020179033  0.4046452239564502   T   T   T
  0.9136592554717637  0.8212192505087756  0.4036546171641007   T   T   T
  0.7759549585787155  0.9839416017964595  0.4054393659119313   T   T   T
  0.9383934228719681  0.9607868573336020  0.4032298580808700   T   T   T
  0.0647301630741524  0.0361638018796668  0.4044370000000015   T   T   F
  0.2259144993508642  0.0147971317400604  0.4017760653935980   T   T   T
  0.0861331256747562  0.1786627049730001  0.4043257826188054   T   T   T
  0.2460947891056762  0.1548664591588178  0.4044618341184147   T   T   T
  0.4106155537136686  0.1326282040364504  0.4042129417081313   T   T   T
  0.5740828249525549  0.1074288275778486  0.4017783891306976   T   T   T
  0.7355394760027565  0.0863728748874379  0.4047334918558150   T   T   T
  0.9000146397831656  0.0612101009663988  0.4019288213208867   T   T   T
  0.1074267455415949  0.3185006225355522  0.4017746137285059   T   T   T
  0.2704178655801570  0.2926608423320403  0.4017722393965855   T   T   T
  0.4369222109030773  0.2704178661779650  0.4017722551081988   T   T   T
  0.5990295990694037  0.2461159205614436  0.4044765874812626   T   T   T
  0.7593085769983006  0.2258951665630704  0.4017787808492415   T   T   T
  0.9227470567961689  0.2008359658603709  0.4044926656512828   T   T   T
  0.1326362323377595  0.4567353574592516  0.4042046062407323   T   T   T
  0.2926608805700752  0.4369215568669489  0.4017721977652329   T   T   T
  0.4567554293683003  0.4106174696767795  0.4042108082718627   T   T   T
  0.6214777774023972  0.3881022625856971  0.4044702594682903   T   T   T
  0.7833403233144338  0.3665167151915796  0.4018830034577192   T   T   T
  0.9451626906335164  0.3430211200400848  0.4044555691902687   T   T   T
  0.1548564432605133  0.5989969405073694  0.4044636879656238   T   T   T
  0.3185019135562044  0.5740685235743257  0.4017746875579107   T   T   T
  0.4814848530747753  0.5481791397392257  0.4017691846889733   T   T   T
  0.6443695817888013  0.5277857847730516  0.4018649441467588   T   T   T
  0.8055918432504967  0.5055154247929607  0.4028191632367353   T   T   T
  0.9702918252742236  0.4815028430308814  0.4017690394929332   T   T   T
  0.0148276077543912  0.7592944855836521  0.4017819973845675   T   T   T
  0.1784578754973012  0.7345060151286731  0.4044264663918256   T   T   T
  0.3427652571821653  0.7118576065350410  0.4044538980965982   T   T   T
  0.5024133094331162  0.6887273253866724  0.4047320109375150   T   T   T
  0.6658851211331651  0.6678031089335263  0.4046966960579326   T   T   T
  0.8276670099291366  0.6444803343970378  0.4018959455147666   T   T   T
  0.9905004857718893  0.6213712813163141  0.4044642572375423   T   T   T
  0.0388773893329741  0.8998493839913095  0.4018475944565552   T   T   T
  0.2010195959044268  0.8761057278823401  0.4044354148030607   T   T   T
  0.3664706677196179  0.8502412698832842  0.4019021311976729   T   T   T
  0.5277614230515013  0.8278255994127335  0.4017108589532796   T   T   T
  0.6889510956731684  0.8092441089090343  0.4047176983131635   T   T   T
  0.8535318913634882  0.7805574917907521  0.4046828762199794   T   T   T
  0.3881001733938874  0.9904295102477363  0.4044679353119989   T   T   T
  0.5481815971369031  0.9703354608186103  0.4017652128448503   T   T   T
  0.7120473237596130  0.9452906225652740  0.4044987537665889   T   T   T
  0.8768609869810930  0.9218767907577856  0.4047320428045538   T   T   T
  0.8564218858871513  0.7119014755010582  0.2665443315982046   T   T   T
  0.4316429530096286  0.8564988941861031  0.2665407175252170   T   T   T
  0.7118329874895934  0.4317123489655899  0.2665394880696326   T   T   T
  0.2865292543334803  0.5686547501449866  0.2665562336806460   T   T   T
  0.5686310825803034  0.1448288596693317  0.2665555013246674   T   T   T
  0.1447229831289221  0.2864359192646546  0.2665005490509671   T   T   T
  0.9999479601892247  0.0000331080968863  0.2674799999999991   T   T   F
  0.9999161069460030  0.0001128657736729  0.1941694330772776   T   T   T
  0.8568193934160746  0.7116924746971875  0.1909897435562868   T   T   T
  0.4314629411567736  0.8569073363199777  0.1909830388573468   T   T   T
  0.7115912044800794  0.4315176507325447  0.1909868201395142   T   T   T
  0.2884623965398774  0.5680351047736494  0.1910609962144036   T   T   T
  0.5679933358811269  0.1435253116478350  0.1910617852969523   T   T   T
  0.1434496836960975  0.2885153074586881  0.1910382009491514   T   T   T
  0.9565617271431108  0.5777123593415681  0.2857960787069516   T   T   T
  0.5314990097788126  0.7217049270756917  0.2858639115772803   T   T   T
  0.1003715358513730  0.8648095600125103  0.2860040548206584   T   T   T
  0.8125084550969675  0.2973461574844052  0.2857159218934413   T   T   T
  0.3868559493763399  0.4337756214054380  0.2857683636115240   T   T   T
  0.6681079577683349  0.0092571616233315  0.2856374289431258   T   T   T
  0.2427223123557312  0.1473393495755815  0.2852081455767390   T   T   T
  0.7216545169999193  0.7468049248109168  0.2858615718531468   T   T   T
  0.2973084343931305  0.8901410979440527  0.2857186988579414   T   T   T
  0.5776445544788373  0.4657485310365317  0.2858081057288970   T   T   T
  0.1473187827606850  0.6099280159911658  0.2852170309313422   T   T   T
  0.8647753487333674  0.0348053488126396  0.2860296324866454   T   T   T
  0.4337900132060923  0.1792502745458222  0.2857877009770959   T   T   T
  0.0091835430616740  0.3226222131109964  0.2856181356719105   T   T   T
  0.8900945808094747  0.8125381875891833  0.2857803520315372   T   T   T
  0.4657008675089571  0.9566233676290494  0.2858031168376982   T   T   T
  0.7467592505313334  0.5315640890277251  0.2858278767798339   T   T   T
  0.3226129307214336  0.6681466508917993  0.2856309958849081   T   T   T
  0.6098927877733686  0.2427696726224866  0.2852137064362665   T   T   T
  0.1787286033293327  0.3870469682208295  0.2858573026285995   T   T   T
  0.0347904493888862  0.1003698300406768  0.2860821064707295   T   T   T
  0.9898441708308212  0.6762745126772174  0.1721788790974372   T   T   T
  0.5663779754597016  0.8225468021160296  0.1768722268943677   T   T   T
  0.1338534367957607  0.9656671830024663  0.1774092235098976   T   T   T
  0.8453662741840802  0.3903712598106353  0.1718481007110597   T   T   T
  0.4234404681245465  0.5322349932923487  0.1770964789822429   T   T   T
  0.7022418708618758  0.1001686822943810  0.1718035689637745   T   T   T
  0.2775841010180571  0.2460852503193252  0.1718904420909126   T   T   T
  0.7642493130374888  0.8454703226410203  0.1718583497204378   T   T   T
  0.3338241771728931  0.9899290334022623  0.1721952473410724   T   T   T
  0.6110157519843966  0.5664685039544111  0.1768812400690862   T   T   T
  0.1975702388094547  0.7022910754681462  0.1718058626693377   T   T   T
  0.9004146376861684  0.1340151937971612  0.1774159711712713   T   T   T
  0.4762977252254572  0.2776495633110798  0.1718892801450593   T   T   T
  0.0442789872909799  0.4235005028145835  0.1770920019194762   T   T   T
  0.9655336380969644  0.9005848485494852  0.1774053958386617   T   T   T
  0.8221807520642983  0.6113579215882012  0.1768464410933603   T   T   T
  0.3903007146414197  0.7642907009537510  0.1718550375576342   T   T   T
  0.6762063299156154  0.3338941450535415  0.1721962403310613   T   T   T
  0.2460196365575911  0.4763448354155457  0.1718957209053613   T   T   T
  0.5321702058772217  0.0443665657024042  0.1770855327543330   T   T   T
  0.1000933291734967  0.1976133016631678  0.1718030862659532   T   T   T
  0.6207825786405081  0.9016860262695516  0.2767340896623267   T   T   T
  0.9016685919116441  0.4775413914847206  0.2767347635351811   T   T   T
  0.4775243120666204  0.6207960208617891  0.2767343317228779   T   T   T
  0.0444605763798762  0.7651753036134110  0.2767418528306820   T   T   T
  0.7651648383263563  0.1903636012793939  0.2767408475035040   T   T   T
  0.3321147405585876  0.3335268410530361  0.2767112025277783   T   T   T
  0.1903404563718425  0.0444807980403326  0.2767417570354809   T   T   T
  0.8080070480463917  0.9517331925857349  0.2205431868534546   T   T   T
  0.6664711266785162  0.6667755458924134  0.2201819734372137   T   T   T
  0.2402164254412043  0.8081527440298615  0.2205136549626943   T   T   T
  0.9515300050688467  0.2404334092811737  0.2205296483308388   T   T   T
  0.5274887091326264  0.3771322808387794  0.2202956930209155   T   T   T
  0.0952124162413881  0.5276972664729200  0.2202744490204722   T   T   T
  0.3770848125457960  0.0953580604208000  0.2202900596035136   T   T   T
 
  0.00000000E+00  0.00000000E+00  0.00000000E+00
  0.00000000E+00  0.00000000E+00  0.00000000E+00
  0.00000000E+00  0.00000000E+00  0.00000000E+00
  0.00000000E+00  0.00000000E+00  0.00000000E+00
  0.00000000E+00  0.00000000E+00  0.00000000E+00
  0.00000000E+00  0.00000000E+00  0.00000000E+00
  0.00000000E+00  0.00000000E+00  0.00000000E+00
  0.00000000E+00  0.00000000E+00  0.00000000E+00
  0.00000000E+00  0.00000000E+00  0.00000000E+00
  0.00000000E+00  0.00000000E+00  0.00000000E+00
  0.00000000E+00  0.00000000E+00  0.00000000E+00
  0.00000000E+00  0.00000000E+00  0.00000000E+00
  0.00000000E+00  0.00000000E+00  0.00000000E+00
  0.00000000E+00  0.00000000E+00  0.00000000E+00
  0.00000000E+00  0.00000000E+00  0.00000000E+00
  0.00000000E+00  0.00000000E+00  0.00000000E+00
  0.00000000E+00  0.00000000E+00  0.00000000E+00
  0.00000000E+00  0.00000000E+00  0.00000000E+00
  0.00000000E+00  0.00000000E+00  0.00000000E+00
  0.00000000E+00  0.00000000E+00  0.00000000E+00
  0.00000000E+00  0.00000000E+00  0.00000000E+00
  0.00000000E+00  0.00000000E+00  0.00000000E+00
  0.00000000E+00  0.00000000E+00  0.00000000E+00
  0.00000000E+00  0.00000000E+00  0.00000000E+00
  0.00000000E+00  0.00000000E+00  0.00000000E+00
  0.00000000E+00  0.00000000E+00  0.00000000E+00
  0.00000000E+00  0.00000000E+00  0.00000000E+00
  0.00000000E+00  0.00000000E+00  0.00000000E+00
  0.00000000E+00  0.00000000E+00  0.00000000E+00
  0.00000000E+00  0.00000000E+00  0.00000000E+00
  0.00000000E+00  0.00000000E+00  0.00000000E+00
  0.00000000E+00  0.00000000E+00  0.00000000E+00
  0.00000000E+00  0.00000000E+00  0.00000000E+00
  0.00000000E+00  0.00000000E+00  0.00000000E+00
  0.00000000E+00  0.00000000E+00  0.00000000E+00
  0.00000000E+00  0.00000000E+00  0.00000000E+00
  0.00000000E+00  0.00000000E+00  0.00000000E+00
  0.00000000E+00  0.00000000E+00  0.00000000E+00
  0.00000000E+00  0.00000000E+00  0.00000000E+00
  0.00000000E+00  0.00000000E+00  0.00000000E+00
  0.00000000E+00  0.00000000E+00  0.00000000E+00
  0.00000000E+00  0.00000000E+00  0.00000000E+00
  0.00000000E+00  0.00000000E+00  0.00000000E+00
  0.00000000E+00  0.00000000E+00  0.00000000E+00
  0.00000000E+00  0.00000000E+00  0.00000000E+00
  0.00000000E+00  0.00000000E+00  0.00000000E+00
  0.00000000E+00  0.00000000E+00  0.00000000E+00
  0.00000000E+00  0.00000000E+00  0.00000000E+00
  0.00000000E+00  0.00000000E+00  0.00000000E+00
  0.00000000E+00  0.00000000E+00  0.00000000E+00
  0.00000000E+00  0.00000000E+00  0.00000000E+00
  0.00000000E+00  0.00000000E+00  0.00000000E+00
  0.00000000E+00  0.00000000E+00  0.00000000E+00
  0.00000000E+00  0.00000000E+00  0.00000000E+00
  0.00000000E+00  0.00000000E+00  0.00000000E+00
  0.00000000E+00  0.00000000E+00  0.00000000E+00
  0.00000000E+00  0.00000000E+00  0.00000000E+00
  0.00000000E+00  0.00000000E+00  0.00000000E+00
  0.00000000E+00  0.00000000E+00  0.00000000E+00
  0.00000000E+00  0.00000000E+00  0.00000000E+00
  0.00000000E+00  0.00000000E+00  0.00000000E+00
  0.00000000E+00  0.00000000E+00  0.00000000E+00
  0.00000000E+00  0.00000000E+00  0.00000000E+00
  0.00000000E+00  0.00000000E+00  0.00000000E+00
  0.00000000E+00  0.00000000E+00  0.00000000E+00
  0.00000000E+00  0.00000000E+00  0.00000000E+00
  0.00000000E+00  0.00000000E+00  0.00000000E+00
  0.00000000E+00  0.00000000E+00  0.00000000E+00
  0.00000000E+00  0.00000000E+00  0.00000000E+00
  0.00000000E+00  0.00000000E+00  0.00000000E+00
  0.00000000E+00  0.00000000E+00  0.00000000E+00
  0.00000000E+00  0.00000000E+00  0.00000000E+00
  0.00000000E+00  0.00000000E+00  0.00000000E+00
  0.00000000E+00  0.00000000E+00  0.00000000E+00
  0.00000000E+00  0.00000000E+00  0.00000000E+00
  0.00000000E+00  0.00000000E+00  0.00000000E+00
  0.00000000E+00  0.00000000E+00  0.00000000E+00
  0.00000000E+00  0.00000000E+00  0.00000000E+00
  0.00000000E+00  0.00000000E+00  0.00000000E+00
  0.00000000E+00  0.00000000E+00  0.00000000E+00
  0.00000000E+00  0.00000000E+00  0.00000000E+00
  0.00000000E+00  0.00000000E+00  0.00000000E+00
  0.00000000E+00  0.00000000E+00  0.00000000E+00
  0.00000000E+00  0.00000000E+00  0.00000000E+00
  0.00000000E+00  0.00000000E+00  0.00000000E+00
  0.00000000E+00  0.00000000E+00  0.00000000E+00
  0.00000000E+00  0.00000000E+00  0.00000000E+00
  0.00000000E+00  0.00000000E+00  0.00000000E+00
  0.00000000E+00  0.00000000E+00  0.00000000E+00
  0.00000000E+00  0.00000000E+00  0.00000000E+00
  0.00000000E+00  0.00000000E+00  0.00000000E+00
  0.00000000E+00  0.00000000E+00  0.00000000E+00
  0.00000000E+00  0.00000000E+00  0.00000000E+00
  0.00000000E+00  0.00000000E+00  0.00000000E+00
  0.00000000E+00  0.00000000E+00  0.00000000E+00
  0.00000000E+00  0.00000000E+00  0.00000000E+00
  0.00000000E+00  0.00000000E+00  0.00000000E+00
  0.00000000E+00  0.00000000E+00  0.00000000E+00
  0.00000000E+00  0.00000000E+00  0.00000000E+00
  0.00000000E+00  0.00000000E+00  0.00000000E+00
  0.00000000E+00  0.00000000E+00  0.00000000E+00
  0.00000000E+00  0.00000000E+00  0.00000000E+00
  0.00000000E+00  0.00000000E+00  0.00000000E+00
  0.00000000E+00  0.00000000E+00  0.00000000E+00
  0.00000000E+00  0.00000000E+00  0.00000000E+00
  0.00000000E+00  0.00000000E+00  0.00000000E+00
  0.00000000E+00  0.00000000E+00  0.00000000E+00
  0.00000000E+00  0.00000000E+00  0.00000000E+00
  0.00000000E+00  0.00000000E+00  0.00000000E+00
  0.00000000E+00  0.00000000E+00  0.00000000E+00
  0.00000000E+00  0.00000000E+00  0.00000000E+00
  0.00000000E+00  0.00000000E+00  0.00000000E+00
  0.00000000E+00  0.00000000E+00  0.00000000E+00
  0.00000000E+00  0.00000000E+00  0.00000000E+00
  0.00000000E+00  0.00000000E+00  0.00000000E+00
  0.00000000E+00  0.00000000E+00  0.00000000E+00
  0.00000000E+00  0.00000000E+00  0.00000000E+00
  0.00000000E+00  0.00000000E+00  0.00000000E+00
  0.00000000E+00  0.00000000E+00  0.00000000E+00
  0.00000000E+00  0.00000000E+00  0.00000000E+00
  0.00000000E+00  0.00000000E+00  0.00000000E+00
  0.00000000E+00  0.00000000E+00  0.00000000E+00
  0.00000000E+00  0.00000000E+00  0.00000000E+00
  0.00000000E+00  0.00000000E+00  0.00000000E+00
  0.00000000E+00  0.00000000E+00  0.00000000E+00
  0.00000000E+00  0.00000000E+00  0.00000000E+00
  0.00000000E+00  0.00000000E+00  0.00000000E+00
  0.00000000E+00  0.00000000E+00  0.00000000E+00
  0.00000000E+00  0.00000000E+00  0.00000000E+00
  0.00000000E+00  0.00000000E+00  0.00000000E+00
  0.00000000E+00  0.00000000E+00  0.00000000E+00
  0.00000000E+00  0.00000000E+00  0.00000000E+00
  0.00000000E+00  0.00000000E+00  0.00000000E+00
  0.00000000E+00  0.00000000E+00  0.00000000E+00
  0.00000000E+00  0.00000000E+00  0.00000000E+00
  0.00000000E+00  0.00000000E+00  0.00000000E+00
  0.00000000E+00  0.00000000E+00  0.00000000E+00
  0.00000000E+00  0.00000000E+00  0.00000000E+00
  0.00000000E+00  0.00000000E+00  0.00000000E+00
  0.00000000E+00  0.00000000E+00  0.00000000E+00
  0.00000000E+00  0.00000000E+00  0.00000000E+00
  0.00000000E+00  0.00000000E+00  0.00000000E+00
  0.00000000E+00  0.00000000E+00  0.00000000E+00
  0.00000000E+00  0.00000000E+00  0.00000000E+00
  0.00000000E+00  0.00000000E+00  0.00000000E+00
  0.00000000E+00  0.00000000E+00  0.00000000E+00
  0.00000000E+00  0.00000000E+00  0.00000000E+00
  0.00000000E+00  0.00000000E+00  0.00000000E+00
  0.00000000E+00  0.00000000E+00  0.00000000E+00
  0.00000000E+00  0.00000000E+00  0.00000000E+00
  0.00000000E+00  0.00000000E+00  0.00000000E+00
  0.00000000E+00  0.00000000E+00  0.00000000E+00
  0.00000000E+00  0.00000000E+00  0.00000000E+00
  0.00000000E+00  0.00000000E+00  0.00000000E+00
  0.00000000E+00  0.00000000E+00  0.00000000E+00
  0.00000000E+00  0.00000000E+00  0.00000000E+00
