largeb3                                 
    1.000000000000000     
    28.2533999999999992    0.0000000000000000    0.0000000000000000
     0.0000000000000000   16.3121000000000009    0.0000000000000000
     0.0000000000000000    0.0000000000000000   30.0000000000000000
   B    N    P    S    Cu   In
    86    86    28    84    14    14
Selective dynamics
Direct
  0.1013253973541595  0.9776205941983207  0.4031366741089357   T   T   T
  0.6013144495021834  0.4776278170477184  0.4031321808572628   T   T   T
  0.1710661750952553  0.8850966671431379  0.4023139693197209   T   T   T
  0.6706587004839264  0.3857731371859643  0.4032218383476334   T   T   T
  0.2405613503446062  0.7912924925521807  0.4033359205769003   T   T   T
  0.7403142045064044  0.2922420806384807  0.4039166719016123   T   T   T
  0.3092982544795717  0.6982098189618355  0.4025097596649516   T   T   T
  0.8092291878113116  0.1982644930422595  0.4024846209068400   T   T   T
  0.1832470200090057  0.0353364775172267  0.4013312009223569   T   T   T
  0.6832582010846053  0.5353440844968844  0.4013242685237728   T   T   T
  0.2530365093834703  0.9428126026970958  0.4024802133652514   T   T   T
  0.7530278403803408  0.4428142466385339  0.4024985912496533   T   T   T
  0.3218056671743383  0.8486124360798755  0.4020542767576600   T   T   T
  0.8218040459491576  0.3485823851856296  0.4020152528946355   T   T   T
  0.3906906071311198  0.7557132991191580  0.4040933304614001   T   T   T
  0.8906864463078392  0.2557040857628934  0.4040891719618713   T   T   T
  0.4593102125791830  0.6623616029806882  0.4021413784370864   T   T   T
  0.9593091441300743  0.1623775115529398  0.4021312952981191   T   T   T
  0.0289172466779135  0.0675876704481055  0.4040033183373666   T   T   T
  0.5289126347450193  0.5675854476977023  0.4040246298572612   T   T   T
  0.1950884586064987  0.1885775033879824  0.4031163807207108   T   T   T
  0.6950871196794282  0.6885752143869723  0.4031110724354363   T   T   T
  0.2641619796606207  0.0941830253297766  0.4019022177386518   T   T   T
  0.7641551183417690  0.5941760497031439  0.4019061500521133   T   T   T
  0.3342986165675228  0.0016249527190695  0.4015100799948002   T   T   T
  0.8342853937591101  0.5016569779885458  0.4014074220430430   T   T   T
  0.4028907053273514  0.9091970724013123  0.4025259046119061   T   T   T
  0.9027736408282792  0.4088802342342035  0.4024812725733398   T   T   T
  0.4716721735634053  0.8142703868632637  0.4039593663289764   T   T   T
  0.9715609242679974  0.3141216292708364  0.4039323770756766   T   T   T
  0.0407341155647600  0.2205522353720255  0.4024916845149278   T   T   T
  0.5407396265474915  0.7205517196230389  0.4024880012535306   T   T   T
  0.1113538924373003  0.1287737249699106  0.4037704114089067   T   T   T
  0.6113540470889660  0.6287686064003424  0.4037669937727273   T   T   T
  0.2773390859460747  0.2444057237366764  0.4035095142875562   T   T   T
  0.7773340341721067  0.7444108102933740  0.4035104089193879   T   T   T
  0.3466577214503346  0.1517103251585965  0.4018495521361203   T   T   T
  0.8466541191446595  0.6517153631762369  0.4018492386764834   T   T   T
  0.4155269284571403  0.0594206420600116  0.4017433811027047   T   T   T
  0.9155510416976114  0.5593269547333790  0.4017611870476614   T   T   T
  0.4843217834603095  0.9651189692945152  0.4024702858616465   T   T   T
  0.9843248268769216  0.4650507917786726  0.4025099715253972   T   T   T
  0.0530912465531586  0.3722264943424918  0.4028887181912708   T   T   T
  0.5533279140772223  0.8722263392608625  0.4028471336554702   T   T   T
  0.1231708101555782  0.2791313236902084  0.4028711419474575   T   T   T
  0.6231909210585016  0.7790936999045499  0.4028758120813620   T   T   T
  0.3576800033489320  0.3021608972681236  0.4028958256962909   T   T   T
  0.8576627391072336  0.8021963692758618  0.4028968951900538   T   T   T
  0.4279614849501598  0.2094503173052118  0.4020718002059240   T   T   T
  0.9279452857316528  0.7094578037010351  0.4020669122603593   T   T   T
  0.4967820348846885  0.1151435963961944  0.4019588272075936   T   T   T
  0.9967820499165114  0.6151475791221444  0.4019727027022526   T   T   T
  0.0656340006874885  0.5243559204709101  0.4032870198388991   T   T   T
  0.5656376234698755  0.0243701586644391  0.4032457491449435   T   T   T
  0.1351774019112426  0.4318884260547051  0.4027925836556321   T   T   T
  0.6350903831705921  0.9318785651969321  0.4022384447871232   T   T   T
  0.2056370074149285  0.3374601835150699  0.4021812780004836   T   T   T
  0.7056282444834778  0.8374654444057299  0.4021693790140759   T   T   T
  0.4386969640066241  0.3589761936561047  0.4012451596166215   T   T   T
  0.9386977286917428  0.8589673111911225  0.4012248029801739   T   T   T
  0.0088499718282904  0.7665048311257081  0.4033660736101297   T   T   T
  0.5088599764371509  0.2664899595388448  0.4033640258420661   T   T   T
  0.0780447308531436  0.6754580121623590  0.4033138911131573   T   T   T
  0.5780351623979669  0.1754789405742301  0.4032985230285462   T   T   T
  0.1465615565559517  0.5834200803902050  0.4029227216982179   T   T   T
  0.6465455040632762  0.0845534594970232  0.4030398505560129   T   T   T
  0.2156512979591128  0.4911905678860293  0.4034851101709265   T   T   T
  0.7156200973041535  0.9912189850278281  0.4033469345252385   T   T   T
  0.2844765050779259  0.3942443094163792  0.4035669171322738   T   T   T
  0.7844840435176366  0.8942821996869768  0.4035724514585652   T   T   T
  0.0202416387752393  0.9163418940771990  0.4021047722412163   T   T   T
  0.5202446754895860  0.4163295557614575  0.4021137876292471   T   T   T
  0.0900610318153383  0.8242265226747278  0.4022130265564101   T   T   T
  0.5900440188210681  0.3241900484427802  0.4021975139201572   T   T   T
  0.1596184333178954  0.7339648338425704  0.4027422566228722   T   T   T
  0.6595215525179015  0.2350418310058373  0.4024612949715021   T   T   T
  0.2280636128521962  0.6405683649478036  0.4018254826212910   T   T   T
  0.7280518044584880  0.1406731943711748  0.4018784343465782   T   T   T
  0.2969557251989414  0.5455721728937419  0.4047287123919787   T   T   T
  0.7971099293089594  0.0456987818965615  0.4047142762939302   T   T   T
  0.3657820438771893  0.4516762228312743  0.4018828212006866   T   T   T
  0.8661836528045868  0.9520049527172105  0.4023471920121722   T   T   T
  0.3779121276977762  0.6033256463545769  0.4039173912709373   T   T   T
  0.8780658664617178  0.1033850488338501  0.4039058802904947   T   T   T
  0.4475512054813535  0.5093722511161261  0.4020925504234256   T   T   T
  0.9475739698786043  0.0093856374603476  0.4020687458073624   T   T   T
  0.0501127961955916  0.9862032544484407  0.4047209388817166   T   T   T
  0.5501080015579731  0.4862042167734302  0.4047239387937509   T   T   T
  0.1194647553118173  0.8946264913085002  0.4018183418693795   T   T   T
  0.6194368735905869  0.3946423276922317  0.4018411869959593   T   T   T
  0.1327944051541010  0.0474830540122539  0.4018082324777339   T   T   T
  0.6327944102847809  0.5474830970634699  0.4018094083951240   T   T   T
  0.2027835017183435  0.9539982379470047  0.4017937859134975   T   T   T
  0.7027745734796795  0.4540290756408396  0.4018218447165154   T   T   T
  0.2715820847155186  0.8610962536470410  0.4046725648115341   T   T   T
  0.7715896430750746  0.3611342071034542  0.4046907456863238   T   T   T
  0.3407098466493963  0.7672777462194773  0.4018115608291026   T   T   T
  0.8407156731526371  0.2672749203752431  0.4018153902175499   T   T   T
  0.4090790472956911  0.6724076281549642  0.4047072098159603   T   T   T
  0.9090926780987658  0.1724190385455771  0.4047039417954679   T   T   T
  0.4782359034496579  0.5794496637451161  0.4020266861235697   T   T   T
  0.9782427379068963  0.0794495436923555  0.4020195836602269   T   T   T
  0.2131258106664760  0.1056266546343920  0.4017949395320670   T   T   T
  0.7131275673947641  0.6056291930469087  0.4017934461600419   T   T   T
  0.2840558700716826  0.0127189876956990  0.4017658037814869   T   T   T
  0.7840577299105647  0.5127221412530005  0.4017614620472401   T   T   T
  0.3530455794746530  0.9204744968604217  0.4020033630717990   T   T   T
  0.8530416856286180  0.4204787160882191  0.4015518426119442   T   T   T
  0.4215531808213484  0.8276150886106990  0.4047487135724950   T   T   T
  0.9215429113459592  0.3275762692113204  0.4047468058932679   T   T   T
  0.4905876548915487  0.7317348415918588  0.4020354924763723   T   T   T
  0.9905899773933911  0.2317302172072857  0.4020350661845242   T   T   T
  0.0597619301448447  0.1388660870135681  0.4047246129241913   T   T   T
  0.5597615233973343  0.6388657106182833  0.4047256807326960   T   T   T
  0.2958479330306361  0.1628720339346614  0.4028998822143706   T   T   T
  0.7958510311274978  0.6628715195691299  0.4029016301909394   T   T   T
  0.3655928934878290  0.0720503310764471  0.4017832198752274   T   T   T
  0.8656018273675699  0.5720456896975961  0.4017830123654278   T   T   T
  0.4340593016476078  0.9778572543376143  0.4017942399960361   T   T   T
  0.9343754871162986  0.4763356970488175  0.4020498100553880   T   T   T
  0.0028335341822654  0.3833472719249897  0.4047131855636721   T   T   T
  0.5034193040625681  0.8833598891565728  0.4047209559024978   T   T   T
  0.0722202568625860  0.2904540710363221  0.4018333301188548   T   T   T
  0.5722355693872956  0.7904382956700928  0.4018262403275585   T   T   T
  0.1437140222683837  0.1973159587896873  0.4047250951181098   T   T   T
  0.6437164952623391  0.6973144456122995  0.4047259837164461   T   T   T
  0.3777793308611450  0.2207280914029468  0.4018349680599442   T   T   T
  0.8777804621699161  0.7207280988721294  0.4018355644724423   T   T   T
  0.4468581785156189  0.1278355490725218  0.4017857258811830   T   T   T
  0.9468587885549269  0.6278176981424508  0.4017852875767147   T   T   T
  0.0156147616300970  0.5348944104200584  0.4020418326612827   T   T   T
  0.5156161395248162  0.0348912816453364  0.4020446893383109   T   T   T
  0.0844327090457071  0.4427400332662970  0.4020394194711798   T   T   T
  0.5844472619524339  0.9427456000449084  0.4020328623588014   T   T   T
  0.1556184194860748  0.3499321061350926  0.4018331669460835   T   T   T
  0.6556205244783655  0.8499358587775987  0.4018181175066644   T   T   T
  0.2276198640623193  0.2570318110417560  0.4018321439041443   T   T   T
  0.7276202799297451  0.7570326309653694  0.4018330321872483   T   T   T
  0.3879681443437661  0.3721820886548386  0.4017704036978103   T   T   T
  0.8879825376170842  0.8721858888182226  0.4017832438188549   T   T   T
  0.4589928902693572  0.2780445345260034  0.4018330213635508   T   T   T
  0.9589927984736235  0.7780268784209525  0.4018313512455265   T   T   T
  0.0280755380402624  0.6844002139387513  0.4038315780932109   T   T   T
  0.5280742199930586  0.1844056382351482  0.4038341659229374   T   T   T
  0.0965531976597234  0.5944008402620540  0.4047244116103670   T   T   T
  0.5965521881798637  0.0944161391380476  0.4047269312473745   T   T   T
  0.1656623961148043  0.5037920978479065  0.4045073324738198   T   T   T
  0.6656243623999529  0.0043422653988827  0.4037993074804689   T   T   T
  0.2344895318197189  0.4094039584179896  0.4020249503788875   T   T   T
  0.7344884996900021  0.9094071027385766  0.4020256801482560   T   T   T
  0.3069467239763100  0.3144065015477153  0.4047239386457306   T   T   T
  0.8069512084517854  0.8144114499236608  0.4047245068642198   T   T   T
  0.4692346973927073  0.4278962085739124  0.4017906554106929   T   T   T
  0.9692367944436953  0.9278939684655896  0.4017834428792426   T   T   T
  0.0402620821380495  0.8349746414273369  0.4018292427338537   T   T   T
  0.5402605228400290  0.3349781043301618  0.4018296277955855   T   T   T
  0.1097071195953205  0.7443554583967043  0.4018761122407497   T   T   T
  0.6096946664172478  0.2444201068050234  0.4018563075596191   T   T   T
  0.1781136122070563  0.6511539542065776  0.3998005069480755   T   T   T
  0.6781270367352121  0.1538539492724809  0.4015429733217601   T   T   T
  0.2471957943450818  0.5608883153735604  0.4047314083873204   T   T   T
  0.7472035338319998  0.0609259456423885  0.4047221010884030   T   T   T
  0.3156571582979026  0.4622935062965254  0.4038420429089058   T   T   T
  0.8157000217638597  0.9623162735460937  0.4038667565765408   T   T   T
  0.1905872615941675  0.8044933202664808  0.4038422053605188   T   T   T
  0.6902822660069035  0.3054577543467829  0.4047355464405058   T   T   T
  0.2593496916438269  0.7095277827419935  0.4020375497741924   T   T   T
  0.7590372236281056  0.2109701822268448  0.4017981944653002   T   T   T
  0.3278169699541920  0.6165638853627016  0.4047454527427021   T   T   T
  0.8283961529207318  0.1165801691186772  0.4047446294791044   T   T   T
  0.3972113383552056  0.5220343300335202  0.4018245120707533   T   T   T
  0.8972345788821698  0.0220926704446143  0.4018346245379973   T   T   T
  0.2845654157057922  0.4318911873717468  0.2672592248046755   T   T   T
  0.7847728342886739  0.9319316146161611  0.2674045765369897   T   T   T
  0.1436998822493365  0.7165502542940843  0.2668604674451416   T   T   T
  0.6447639288832434  0.2114064540539502  0.2683485623313189   T   T   T
  0.0719183018998493  0.3574516162179719  0.2672682950646035   T   T   T
  0.5705495789557418  0.8563039569738891  0.2673832170140145   T   T   T
  0.4292265733947076  0.1442439280178149  0.2624147493594933   T   T   T
  0.9283691547960302  0.6439582553643746  0.2631369179430223   T   T   T
  0.3561233155900680  0.7879754410619952  0.2665467360177232   T   T   T
  0.8564778485795586  0.2873337270227125  0.2655264166892337   T   T   T
  0.2131789732853662  0.0724418361136969  0.2674243108842020   T   T   T
  0.7155785007137752  0.5694405489502330  0.2669915271484058   T   T   T
  0.5000572906577503  0.5001107087295864  0.2711454104565405   T   T   T
  0.9994730015501290  0.9993032132070780  0.2667494183240038   T   T   T
  0.0001605367908866  0.9993436047172111  0.1915429320950253   T   T   T
  0.5005828663292391  0.4994534457672799  0.1961129733671640   T   T   T
  0.2834979568051565  0.4253863823766793  0.1915511151957361   T   T   T
  0.7824839663274972  0.9255948548131414  0.1918447739845845   T   T   T
  0.1439022218379620  0.7171226167755833  0.1912905172427202   T   T   T
  0.6449871720767391  0.2132413589874886  0.1934320192386494   T   T   T
  0.0720459141863117  0.3567264613051506  0.1916993674494165   T   T   T
  0.5703157099764979  0.8550406880387911  0.1916267704235253   T   T   T
  0.4308542055075222  0.1432467117466132  0.1874732175909557   T   T   T
  0.9308082652423337  0.6413737761282690  0.1885874558470135   T   T   T
  0.3575047350013989  0.7849349289671963  0.1912492196663962   T   T   T
  0.8580056575495618  0.2794670294437296  0.1903729663773746   T   T   T
  0.2133219926476428  0.0757194299921622  0.1922239904196630   T   T   T
  0.7145790595483987  0.5748824676988065  0.1915041122391798   T   T   T
  0.2659338792354902  0.3123938251926006  0.2864906315850959   T   T   T
  0.7660612857711513  0.8124865671910513  0.2865197469789678   T   T   T
  0.1235282389756520  0.5999944613226802  0.2864093468625200   T   T   T
  0.6200661946383121  0.1001156600794815  0.2857265673997418   T   T   T
  0.4789508054563711  0.3883755611054127  0.2913083445876552   T   T   T
  0.9784574216399520  0.8875791701230540  0.2855555938197725   T   T   T
  0.0535291751334057  0.2417385741587168  0.2867473213489973   T   T   T
  0.5549990107763847  0.7375117638481115  0.2862997890671082   T   T   T
  0.4049045654688186  0.0324184448201024  0.2797903681804712   T   T   T
  0.9066134497865832  0.5310308633658920  0.2805850842715429   T   T   T
  0.3342258161042224  0.6759798328405324  0.2860126052433714   T   T   T
  0.8345657553726085  0.1758940102421107  0.2857427783757913   T   T   T
  0.1923104344297499  0.9557043079035807  0.2864074396059095   T   T   T
  0.6929512746077364  0.4548606705890919  0.2867001360429526   T   T   T
  0.2376941471038663  0.5187730794525649  0.2854725773113955   T   T   T
  0.7395057987373548  0.0213946391685766  0.2857148922195307   T   T   T
  0.0922810503831286  0.8001474785271867  0.2866482484137549   T   T   T
  0.5946685852720179  0.2991837940436710  0.2886716293423675   T   T   T
  0.0223207254177353  0.4442244843480694  0.2868877467402342   T   T   T
  0.5256270651300525  0.9449928943735273  0.2870406117645246   T   T   T
  0.3843821457682850  0.2351517609424079  0.2798775387039569   T   T   T
  0.8841335738517913  0.7353242663999495  0.2803129011740779   T   T   T
  0.4519528959206696  0.5890387740218230  0.2911535211546337   T   T   T
  0.9517959470939630  0.0891115764928756  0.2864477053125540   T   T   T
  0.3122293872034376  0.8791477266664174  0.2847400891527201   T   T   T
  0.8126854157643280  0.3794012928259534  0.2825720084520000   T   T   T
  0.1627854639487083  0.1566753915697703  0.2871096841377820   T   T   T
  0.6653177796750427  0.6554435462044026  0.2862431480911098   T   T   T
  0.3518898773338108  0.4544162455373879  0.2858375833563258   T   T   T
  0.8524243802220610  0.9539669133625708  0.2856533583534642   T   T   T
  0.2097458222058819  0.7428032972772556  0.2868792021869737   T   T   T
  0.7121917668396875  0.2347077407093252  0.2867084804071496   T   T   T
  0.1385520171499905  0.3874918926158841  0.2900827750502017   T   T   T
  0.6382751121099517  0.8860263743880097  0.2886447490068065   T   T   T
  0.4970628555484851  0.1653664752018997  0.2804197490355023   T   T   T
  0.9957930454200294  0.6760752915983588  0.2852608761272180   T   T   T
  0.4251679808768074  0.8159183756143946  0.2860490722338085   T   T   T
  0.9250624299119607  0.3177604686081423  0.2853425645775545   T   T   T
  0.2808809972778761  0.0908727925273922  0.2864864223067514   T   T   T
  0.7828899488220173  0.5895847159434666  0.2860074679203066   T   T   T
  0.0670017873523321  0.0335083970758063  0.2860374604592337   T   T   T
  0.5684167018524278  0.5337586768790672  0.2889182888164186   T   T   T
  0.3275525150001641  0.3310935917266846  0.1720469788142864   T   T   T
  0.8270091397767771  0.8316849901725973  0.1722525852298631   T   T   T
  0.1878360013388090  0.6198697070724393  0.1725236256568863   T   T   T
  0.6873504920095286  0.1161326505996172  0.1725898112831956   T   T   T
  0.0460586231086850  0.9108101746366444  0.1726225741262652   T   T   T
  0.5464790456502726  0.4103643614993970  0.1783863869093096   T   T   T
  0.1186349377082436  0.2679062310049289  0.1737347146042936   T   T   T
  0.6170663669631509  0.7676103661067373  0.1727054186258030   T   T   T
  0.4743222389519275  0.0481056264916191  0.1673530250405619   T   T   T
  0.9779626119442426  0.5543094180468700  0.1720545458831566   T   T   T
  0.4004223939147309  0.6927578602175757  0.1728670757320074   T   T   T
  0.9019423274952203  0.1888536536121990  0.1726982570429030   T   T   T
  0.2570872356891769  0.9784703854590120  0.1726392203648714   T   T   T
  0.7575794458145566  0.4771256785032847  0.1724101619274734   T   T   T
  0.3132166837811852  0.5349130086419223  0.1696849168090040   T   T   T
  0.8127131767178710  0.0344959201851793  0.1693786135088970   T   T   T
  0.1685028682218217  0.8275558999198083  0.1726500611251325   T   T   T
  0.6686187468742801  0.3236492376857498  0.1736544243757763   T   T   T
  0.0934827314421156  0.4723942821283487  0.1775551101940565   T   T   T
  0.5973344159608445  0.9682505668945680  0.1727991549107415   T   T   T
  0.4574893356719585  0.2553263497317957  0.1668741162539717   T   T   T
  0.9552044415714178  0.7544603701552788  0.1667319821287165   T   T   T
  0.0197009241331969  0.1128868927651823  0.1723927834164414   T   T   T
  0.5189385157409347  0.6126396300255479  0.1757825318224278   T   T   T
  0.3841267103694435  0.8982374388879677  0.1717906960454698   T   T   T
  0.8840872577241612  0.3908514395195724  0.1670271647922590   T   T   T
  0.2374638012694632  0.1877054026352951  0.1752368300750362   T   T   T
  0.7374745747416682  0.6877143670128376  0.1751077311072606   T   T   T
  0.4306092397640953  0.4788570107428782  0.1776946208990040   T   T   T
  0.9301127112439573  0.9789878003520727  0.1730651468496021   T   T   T
  0.2168356791368353  0.4010776053028948  0.1727119787279321   T   T   T
  0.7158699968829794  0.9019157760865539  0.1732635406980592   T   T   T
  0.0771208282162377  0.6896719209101221  0.1728820065620553   T   T   T
  0.5760140294549885  0.2003910750022655  0.1723841149450749   T   T   T
  0.0046171673780719  0.3333364406664572  0.1732225150965476   T   T   T
  0.5029205823444585  0.8346802281180601  0.1731311262498991   T   T   T
  0.3615390902443494  0.1257263789445133  0.1668692006210151   T   T   T
  0.8613223969677932  0.6227443170203060  0.1679024844843866   T   T   T
  0.2878091957714446  0.7688173287289999  0.1713843859905708   T   T   T
  0.7878207427141461  0.2675348557195960  0.1703261929970523   T   T   T
  0.1471212696723683  0.0457337493344525  0.1726824544776662   T   T   T
  0.6478895985939701  0.5451508847280238  0.1726618332557877   T   T   T
  0.2655481747666144  0.6393077600867656  0.1815198273521048   T   T   T
  0.7655160080068981  0.1392763766411065  0.1815012985911792   T   T   T
  0.1905012914975757  0.2830302595927350  0.2768830573601022   T   T   T
  0.6905343297688660  0.7829911506943148  0.2768639522591414   T   T   T
  0.0468582553103545  0.5719032613644615  0.2768347626414283   T   T   T
  0.5501253514506175  0.0763558609024670  0.1849452494831851   T   T   T
  0.4032766531092733  0.3505022280012895  0.1815889178007666   T   T   T
  0.9032065885592218  0.8505220767020916  0.1815610868732307   T   T   T
  0.4780524139318558  0.7162482188262231  0.2768810857350985   T   T   T
  0.9779681111377485  0.2163017577439987  0.2768262649536553   T   T   T
  0.3332516985844336  0.9993245462608016  0.1817253403860732   T   T   T
  0.8344648357997499  0.4947994830972675  0.1814798890610305   T   T   T
  0.1156595629369122  0.9274586536574532  0.2768550722166481   T   T   T
  0.6157031885914392  0.4274183388717034  0.2769010496533539   T   T   T
  0.3792681518373939  0.5750786911656292  0.2325750787414194   T   T   T
  0.8787031159625585  0.0725396939961129  0.2311497213163207   T   T   T
  0.1678954277754556  0.4969002797368560  0.2279676588610684   T   T   T
  0.6678483672515014  0.9991339535101886  0.2312511125275165   T   T   T
  0.0246971504850109  0.7887816054790164  0.2252660879867108   T   T   T
  0.5219554146416669  0.2914281288275404  0.2324683529913614   T   T   T
  0.0942368385915273  0.1422357356824762  0.2224198810227307   T   T   T
  0.5959730555369944  0.6409921586265668  0.2231116183539328   T   T   T
  0.4553785522314797  0.9310790558213498  0.2297292103040149   T   T   T
  0.9536240137588763  0.4315347271285574  0.2250282304448987   T   T   T
  0.3091740960278528  0.2075505516819476  0.2309459447853257   T   T   T
  0.8095573185882614  0.7075240979957087  0.2302767814245996   T   T   T
  0.2379647372534208  0.8563838668619184  0.2303225726217093   T   T   T
  0.7378122209068252  0.3528663297641685  0.2312184650193601   T   T   T
 
  0.00000000E+00  0.00000000E+00  0.00000000E+00
  0.00000000E+00  0.00000000E+00  0.00000000E+00
  0.00000000E+00  0.00000000E+00  0.00000000E+00
  0.00000000E+00  0.00000000E+00  0.00000000E+00
  0.00000000E+00  0.00000000E+00  0.00000000E+00
  0.00000000E+00  0.00000000E+00  0.00000000E+00
  0.00000000E+00  0.00000000E+00  0.00000000E+00
  0.00000000E+00  0.00000000E+00  0.00000000E+00
  0.00000000E+00  0.00000000E+00  0.00000000E+00
  0.00000000E+00  0.00000000E+00  0.00000000E+00
  0.00000000E+00  0.00000000E+00  0.00000000E+00
  0.00000000E+00  0.00000000E+00  0.00000000E+00
  0.00000000E+00  0.00000000E+00  0.00000000E+00
  0.00000000E+00  0.00000000E+00  0.00000000E+00
  0.00000000E+00  0.00000000E+00  0.00000000E+00
  0.00000000E+00  0.00000000E+00  0.00000000E+00
  0.00000000E+00  0.00000000E+00  0.00000000E+00
  0.00000000E+00  0.00000000E+00  0.00000000E+00
  0.00000000E+00  0.00000000E+00  0.00000000E+00
  0.00000000E+00  0.00000000E+00  0.00000000E+00
  0.00000000E+00  0.00000000E+00  0.00000000E+00
  0.00000000E+00  0.00000000E+00  0.00000000E+00
  0.00000000E+00  0.00000000E+00  0.00000000E+00
  0.00000000E+00  0.00000000E+00  0.00000000E+00
  0.00000000E+00  0.00000000E+00  0.00000000E+00
  0.00000000E+00  0.00000000E+00  0.00000000E+00
  0.00000000E+00  0.00000000E+00  0.00000000E+00
  0.00000000E+00  0.00000000E+00  0.00000000E+00
  0.00000000E+00  0.00000000E+00  0.00000000E+00
  0.00000000E+00  0.00000000E+00  0.00000000E+00
  0.00000000E+00  0.00000000E+00  0.00000000E+00
  0.00000000E+00  0.00000000E+00  0.00000000E+00
  0.00000000E+00  0.00000000E+00  0.00000000E+00
  0.00000000E+00  0.00000000E+00  0.00000000E+00
  0.00000000E+00  0.00000000E+00  0.00000000E+00
  0.00000000E+00  0.00000000E+00  0.00000000E+00
  0.00000000E+00  0.00000000E+00  0.00000000E+00
  0.00000000E+00  0.00000000E+00  0.00000000E+00
  0.00000000E+00  0.00000000E+00  0.00000000E+00
  0.00000000E+00  0.00000000E+00  0.00000000E+00
  0.00000000E+00  0.00000000E+00  0.00000000E+00
  0.00000000E+00  0.00000000E+00  0.00000000E+00
  0.00000000E+00  0.00000000E+00  0.00000000E+00
  0.00000000E+00  0.00000000E+00  0.00000000E+00
  0.00000000E+00  0.00000000E+00  0.00000000E+00
  0.00000000E+00  0.00000000E+00  0.00000000E+00
  0.00000000E+00  0.00000000E+00  0.00000000E+00
  0.00000000E+00  0.00000000E+00  0.00000000E+00
  0.00000000E+00  0.00000000E+00  0.00000000E+00
  0.00000000E+00  0.00000000E+00  0.00000000E+00
  0.00000000E+00  0.00000000E+00  0.00000000E+00
  0.00000000E+00  0.00000000E+00  0.00000000E+00
  0.00000000E+00  0.00000000E+00  0.00000000E+00
  0.00000000E+00  0.00000000E+00  0.00000000E+00
  0.00000000E+00  0.00000000E+00  0.00000000E+00
  0.00000000E+00  0.00000000E+00  0.00000000E+00
  0.00000000E+00  0.00000000E+00  0.00000000E+00
  0.00000000E+00  0.00000000E+00  0.00000000E+00
  0.00000000E+00  0.00000000E+00  0.00000000E+00
  0.00000000E+00  0.00000000E+00  0.00000000E+00
  0.00000000E+00  0.00000000E+00  0.00000000E+00
  0.00000000E+00  0.00000000E+00  0.00000000E+00
  0.00000000E+00  0.00000000E+00  0.00000000E+00
  0.00000000E+00  0.00000000E+00  0.00000000E+00
  0.00000000E+00  0.00000000E+00  0.00000000E+00
  0.00000000E+00  0.00000000E+00  0.00000000E+00
  0.00000000E+00  0.00000000E+00  0.00000000E+00
  0.00000000E+00  0.00000000E+00  0.00000000E+00
  0.00000000E+00  0.00000000E+00  0.00000000E+00
  0.00000000E+00  0.00000000E+00  0.00000000E+00
  0.00000000E+00  0.00000000E+00  0.00000000E+00
  0.00000000E+00  0.00000000E+00  0.00000000E+00
  0.00000000E+00  0.00000000E+00  0.00000000E+00
  0.00000000E+00  0.00000000E+00  0.00000000E+00
  0.00000000E+00  0.00000000E+00  0.00000000E+00
  0.00000000E+00  0.00000000E+00  0.00000000E+00
  0.00000000E+00  0.00000000E+00  0.00000000E+00
  0.00000000E+00  0.00000000E+00  0.00000000E+00
  0.00000000E+00  0.00000000E+00  0.00000000E+00
  0.00000000E+00  0.00000000E+00  0.00000000E+00
  0.00000000E+00  0.00000000E+00  0.00000000E+00
  0.00000000E+00  0.00000000E+00  0.00000000E+00
  0.00000000E+00  0.00000000E+00  0.00000000E+00
  0.00000000E+00  0.00000000E+00  0.00000000E+00
  0.00000000E+00  0.00000000E+00  0.00000000E+00
  0.00000000E+00  0.00000000E+00  0.00000000E+00
  0.00000000E+00  0.00000000E+00  0.00000000E+00
  0.00000000E+00  0.00000000E+00  0.00000000E+00
  0.00000000E+00  0.00000000E+00  0.00000000E+00
  0.00000000E+00  0.00000000E+00  0.00000000E+00
  0.00000000E+00  0.00000000E+00  0.00000000E+00
  0.00000000E+00  0.00000000E+00  0.00000000E+00
  0.00000000E+00  0.00000000E+00  0.00000000E+00
  0.00000000E+00  0.00000000E+00  0.00000000E+00
  0.00000000E+00  0.00000000E+00  0.00000000E+00
  0.00000000E+00  0.00000000E+00  0.00000000E+00
  0.00000000E+00  0.00000000E+00  0.00000000E+00
  0.00000000E+00  0.00000000E+00  0.00000000E+00
  0.00000000E+00  0.00000000E+00  0.00000000E+00
  0.00000000E+00  0.00000000E+00  0.00000000E+00
  0.00000000E+00  0.00000000E+00  0.00000000E+00
  0.00000000E+00  0.00000000E+00  0.00000000E+00
  0.00000000E+00  0.00000000E+00  0.00000000E+00
  0.00000000E+00  0.00000000E+00  0.00000000E+00
  0.00000000E+00  0.00000000E+00  0.00000000E+00
  0.00000000E+00  0.00000000E+00  0.00000000E+00
  0.00000000E+00  0.00000000E+00  0.00000000E+00
  0.00000000E+00  0.00000000E+00  0.00000000E+00
  0.00000000E+00  0.00000000E+00  0.00000000E+00
  0.00000000E+00  0.00000000E+00  0.00000000E+00
  0.00000000E+00  0.00000000E+00  0.00000000E+00
  0.00000000E+00  0.00000000E+00  0.00000000E+00
  0.00000000E+00  0.00000000E+00  0.00000000E+00
  0.00000000E+00  0.00000000E+00  0.00000000E+00
  0.00000000E+00  0.00000000E+00  0.00000000E+00
  0.00000000E+00  0.00000000E+00  0.00000000E+00
  0.00000000E+00  0.00000000E+00  0.00000000E+00
  0.00000000E+00  0.00000000E+00  0.00000000E+00
  0.00000000E+00  0.00000000E+00  0.00000000E+00
  0.00000000E+00  0.00000000E+00  0.00000000E+00
  0.00000000E+00  0.00000000E+00  0.00000000E+00
  0.00000000E+00  0.00000000E+00  0.00000000E+00
  0.00000000E+00  0.00000000E+00  0.00000000E+00
  0.00000000E+00  0.00000000E+00  0.00000000E+00
  0.00000000E+00  0.00000000E+00  0.00000000E+00
  0.00000000E+00  0.00000000E+00  0.00000000E+00
  0.00000000E+00  0.00000000E+00  0.00000000E+00
  0.00000000E+00  0.00000000E+00  0.00000000E+00
  0.00000000E+00  0.00000000E+00  0.00000000E+00
  0.00000000E+00  0.00000000E+00  0.00000000E+00
  0.00000000E+00  0.00000000E+00  0.00000000E+00
  0.00000000E+00  0.00000000E+00  0.00000000E+00
  0.00000000E+00  0.00000000E+00  0.00000000E+00
  0.00000000E+00  0.00000000E+00  0.00000000E+00
  0.00000000E+00  0.00000000E+00  0.00000000E+00
  0.00000000E+00  0.00000000E+00  0.00000000E+00
  0.00000000E+00  0.00000000E+00  0.00000000E+00
  0.00000000E+00  0.00000000E+00  0.00000000E+00
  0.00000000E+00  0.00000000E+00  0.00000000E+00