4bnLayer2                               
    1.000000000000000     
    14.1267069999999997    8.1560249999999996    0.0000000000000000
     0.0000000000000000   16.3121000000000009    0.0000000000000000
     0.0000000000000000    0.0000000000000000   30.0000000000000000
   B    N    P    S    Cu   In
    43    43    14    42     7     7
Selective dynamics
Direct
  0.1235365646807125  0.0774520818506801  0.4084598067681000   T   T   T
  0.2875000780564889  0.0543150541366728  0.4098885544484361   T   T   T
  0.4474100739273581  0.0318035203791993  0.4099079711992317   T   T   T
  0.6112159184439179  0.0085508892444253  0.4079555502654557   T   T   T
  0.1461303953674786  0.2187097537424734  0.4099284570961075   T   T   T
  0.3102019029667105  0.1926809458226018  0.4103222448489134   T   T   T
  0.4732629338996830  0.1708524223495971  0.4092201851798123   T   T   T
  0.6351734480394029  0.1461185690173892  0.4099344054778129   T   T   T
  0.7990248779791855  0.1235229594270493  0.4084613577322429   T   T   T
  0.9608843603128960  0.1007353896448322  0.4092281199733137   T   T   T
  0.0085509561876194  0.3802356896669110  0.4079556091359748   T   T   T
  0.1708653880452644  0.3558926158990801  0.4092272412805400   T   T   T
  0.3333344346679539  0.3333338315423475  0.4074766182571068   T   T   T
  0.4971514538567092  0.3101761728335788  0.4103177668746909   T   T   T
  0.6582067613502005  0.2874920326673376  0.4098882026438915   T   T   T
  0.8221578069058850  0.2642312554736534  0.4079679613460243   T   T   T
  0.9838482449721795  0.2402026592133311  0.4099284645901733   T   T   T
  0.0318350102736389  0.5208106612570518  0.4099071254099727   T   T   T
  0.1926870516100436  0.4971459724725946  0.4103251225954168   T   T   T
  0.3558991364811064  0.4732500876411478  0.4092220543464862   T   T   T
  0.5208042270875879  0.4473944705591535  0.4099078756614389   T   T   T
  0.6841447420185887  0.4264376076257008  0.4093465961869427   T   T   T
  0.8448198806217775  0.4039621253338836  0.4091577584451755   T   T   T
  0.0543223038911336  0.6582066456458975  0.4098854554797242   T   T   T
  0.2187208892957671  0.6351624429012332  0.4099290923328525   T   T   T
  0.3802418626304629  0.6112126159625717  0.4079547885114465   T   T   T
  0.5442017817871161  0.5886976881889510  0.4080061422599428   T   T   T
  0.7063127576264066  0.5667124896588263  0.4093786119447387   T   T   T
  0.8671680495070646  0.5441595229750362  0.4080019615895267   T   T   T
  0.0774679932984981  0.7990183189111519  0.4084600558743787   T   T   T
  0.2402398707514806  0.7759756307345071  0.4099278165829858   T   T   T
  0.4040482392141200  0.7511737531741716  0.4091755459020234   T   T   T
  0.5673491769007697  0.7272526947943092  0.4093257190568522   T   T   T
  0.7281615474470939  0.7057800202860562  0.4092766883448533   T   T   T
  0.8894972691750809  0.6841329838703345  0.4093518172248167   T   T   T
  0.1007497635478671  0.9383896262486928  0.4092253347182933   T   T   T
  0.2642362265866538  0.9136153841984296  0.4079686019424145   T   T   T
  0.4264053734727611  0.8894073639383322  0.4093322424260464   T   T   T
  0.5886913815286263  0.8671298441014414  0.4080033537129708   T   T   T
  0.7511920397891316  0.8448272267911037  0.4091614936859003   T   T   T
  0.9136172413353734  0.8221529143316602  0.4079674551545693   T   T   T
  0.7759730638374052  0.9838153695088749  0.4099273038597886   T   T   T
  0.9383967876144865  0.9608734515651847  0.4092249527100051   T   T   T
  0.0611823902601216  0.0389077093286616  0.4078706308942586   T   T   T
  0.2258750198641906  0.0148301287027195  0.4077357612217014   T   T   T
  0.0863326528183563  0.1781634299400565  0.4106817148297139   T   T   T
  0.2461012009205632  0.1553069487830072  0.4107102490283339   T   T   T
  0.4105934495378705  0.1325634028423863  0.4106857983282595   T   T   T
  0.5740161739775260  0.1074816690167779  0.4077436763227240   T   T   T
  0.7355136284057906  0.0863205599708792  0.4106815348349784   T   T   T
  0.8999128901900519  0.0611801591722454  0.4078693441095425   T   T   T
  0.1074822730158047  0.3185028249430175  0.4077437508440269   T   T   T
  0.2721108215068071  0.2943781621824328  0.4078858120003872   T   T   T
  0.4335151711755927  0.2721084435629635  0.4078853731969048   T   T   T
  0.5986754008400084  0.2460457316785991  0.4107090938206994   T   T   T
  0.7592970593412360  0.2258738549562196  0.4077357271588795   T   T   T
  0.9224123146602707  0.2009573457755920  0.4106012673855233   T   T   T
  0.1325714744564408  0.4568494208953879  0.4106828800183990   T   T   T
  0.2943780951082999  0.4335132592114377  0.4078865267019935   T   T   T
  0.4568503681329474  0.4105835944829366  0.4106837507674115   T   T   T
  0.6216169510182112  0.3881382084391305  0.4106682598806515   T   T   T
  0.7851105494162312  0.3630674242238854  0.4077443730465191   T   T   T
  0.9452435214462369  0.3428631990486011  0.4104103697528458   T   T   T
  0.1552961094592646  0.5986525547107675  0.4107092555682215   T   T   T
  0.3185032678068183  0.5740151920879342  0.4077435830281360   T   T   T
  0.4815052559689477  0.5482066023510725  0.4077367913179373   T   T   T
  0.6445231880419584  0.5276821599527963  0.4087873564512705   T   T   T
  0.8057191676188040  0.5053657710253177  0.4078689580422079   T   T   T
  0.9702912368233640  0.4815047602812186  0.4077368675159789   T   T   T
  0.0148304860406228  0.7592960753079652  0.4077357082717299   T   T   T
  0.1781755622118837  0.7355131673444930  0.4106826535026755   T   T   T
  0.3428724836759756  0.7118932230585528  0.4104108676196887   T   T   T
  0.5054579867538678  0.6889304899167357  0.4078613713606174   T   T   T
  0.6677261958241658  0.6663968439901922  0.4106548671296864   T   T   T
  0.8278721184316424  0.6444796407453950  0.4087853059692961   T   T   T
  0.9902522906533306  0.6216173164572822  0.4106677814961444   T   T   T
  0.0389114784272309  0.8999108177443702  0.4078702838103965   T   T   T
  0.2009786760171295  0.8766502430250824  0.4106074129926895   T   T   T
  0.3630682910661704  0.8518223205332518  0.4077446884582443   T   T   T
  0.5276885241106015  0.8278154102707447  0.4087863422932543   T   T   T
  0.6889384519742094  0.8056747741926316  0.4078618778034411   T   T   T
  0.8518237900920624  0.7851088225570635  0.4077445039423395   T   T   T
  0.3881429654864874  0.9902441514856406  0.4106663433120659   T   T   T
  0.5482074470433105  0.9702892662559819  0.4077368564830053   T   T   T
  0.7118970216403184  0.9452433267908091  0.4104109068314017   T   T   T
  0.8766471020980475  0.9223837241427546  0.4106048728331047   T   T   T
  0.8558553761740910  0.7120045249158125  0.2012382742063394   T   T   T
  0.4321201920532189  0.8558531395695752  0.2012205272912695   T   T   T
  0.7120665714534340  0.4321428681482828  0.2012329595218745   T   T   T
  0.2867822348701381  0.5686098375929660  0.2030845266620602   T   T   T
  0.5686142748010496  0.1441141650646856  0.2031115200027642   T   T   T
  0.1440175371830463  0.2872866962689500  0.2031030711694868   T   T   T
  0.0000355094878728  0.9999948237294447  0.2016310029356987   T   T   T
  0.0000615894791878  0.9999932744132138  0.2749471594428812   T   T   T
  0.8551845854064553  0.7121280513605726  0.2748170223380697   T   T   T
  0.4327637210638926  0.8551720457178291  0.2748095769364198   T   T   T
  0.7121371753278538  0.4327391096602398  0.2748166772831198   T   T   T
  0.2884632514715122  0.5679543569508425  0.2786355875848940   T   T   T
  0.5679627354785808  0.1435857968671357  0.2786408398980527   T   T   T
  0.1436667340012221  0.2884132348552200  0.2786387214115535   T   T   T
  0.9563595874855224  0.5770351615659948  0.1833159812288940   T   T   T
  0.5308220670256176  0.7223909650231093  0.1787987269275533   T   T   T
  0.1002512402813167  0.8647214209667737  0.1833338423892954   T   T   T
  0.8124020373119833  0.2964424173677287  0.1827863216023005   T   T   T
  0.3867340485905331  0.4336054360108363  0.1834367840022608   T   T   T
  0.6678090713481097  0.0090483585715049  0.1837153982764406   T   T   T
  0.2395435169203495  0.1503950271704326  0.1828136826704778   T   T   T
  0.7223842880064666  0.7467867270623358  0.1788068768754840   T   T   T
  0.2963932209254807  0.8913063456253241  0.1827006834640912   T   T   T
  0.5770410010404561  0.4665992753396040  0.1832939558454711   T   T   T
  0.1480762404609095  0.6099288194126444  0.1838437720178092   T   T   T
  0.8647847997548155  0.0350264443763493  0.1833413046947570   T   T   T
  0.4335678248381072  0.1794499326083638  0.1834465791447784   T   T   T
  0.0089643853109607  0.3231980737611693  0.1837182765292695   T   T   T
  0.8910148680938335  0.8124919803286303  0.1828304454600627   T   T   T
  0.4666642512929400  0.9563562970657884  0.1832856242947969   T   T   T
  0.7467873498389253  0.5308533454670794  0.1787985222188908   T   T   T
  0.3229711384951486  0.6677352435085382  0.1837001185664562   T   T   T
  0.6099617016391505  0.2398987680999909  0.1830255499144187   T   T   T
  0.1789693166843946  0.3871395742343111  0.1834365779916496   T   T   T
  0.0350447923453885  0.1002085203287209  0.1833333625992779   T   T   T
  0.9883601792537675  0.6789059488361389  0.2922629694787844   T   T   T
  0.5665932358608714  0.8206858450384686  0.2916737171122037   T   T   T
  0.1341915216323741  0.9649683433514369  0.2920440649910176   T   T   T
  0.8457360199903832  0.3981484449716532  0.2919246907342128   T   T   T
  0.4236179425821476  0.5315880024373172  0.2924607842740983   T   T   T
  0.7024183227588523  0.0999886222344202  0.2973649154195996   T   T   T
  0.2782762860533765  0.2453396385384110  0.2971127723854039   T   T   T
  0.7561829781144311  0.8457060521258768  0.2919274847969362   T   T   T
  0.3327904429646154  0.9884298719728406  0.2922209018117385   T   T   T
  0.6127766513656780  0.5665625376322083  0.2916764200525179   T   T   T
  0.1976869990817036  0.7024143334744650  0.2973775429380723   T   T   T
  0.9009341786606910  0.1341262060519099  0.2920441534655254   T   T   T
  0.4765086151417108  0.2782428726471906  0.2971380491196740   T   T   T
  0.0448081634974642  0.4235391321408031  0.2925291566385013   T   T   T
  0.9650145467945777  0.9009014086409337  0.2920582952906301   T   T   T
  0.8207381452772680  0.6127615980953962  0.2916879878745107   T   T   T
  0.3981636820572660  0.7561796736510615  0.2919286399943886   T   T   T
  0.6788838792764764  0.3327485060043571  0.2922221911097438   T   T   T
  0.2454644000139510  0.4764164403232201  0.2972452858998196   T   T   T
  0.5315923528316233  0.0448212237139245  0.2924833663790025   T   T   T
  0.1000508111908971  0.1976044198003564  0.2973735616019013   T   T   T
  0.6209897723407067  0.9014024843774422  0.1933800425525476   T   T   T
  0.9014029589090100  0.4776337465604499  0.1933822338409712   T   T   T
  0.4776187237362919  0.6209769649415264  0.1933811498634412   T   T   T
  0.0445349113916791  0.7651504556379223  0.1934301180181279   T   T   T
  0.7651134943017155  0.1903401716098330  0.1934263913603615   T   T   T
  0.3321181824263206  0.3335058288699102  0.1934591516124158   T   T   T
  0.1903396255934737  0.0445627872662442  0.1934257454357464   T   T   T
  0.8078721784286031  0.9515058784940962  0.2478408934226763   T   T   T
  0.6667667027679869  0.6666449428448189  0.2448629394390380   T   T   T
  0.2407951307510743  0.8077734241133285  0.2478062379754959   T   T   T
  0.9515202089762695  0.2407231324969246  0.2478078522762601   T   T   T
  0.5260101559185344  0.3777562984197900  0.2468427606550989   T   T   T
  0.0962787201119184  0.5257824143437020  0.2472161915475510   T   T   T
  0.3778218736558827  0.0962174023591515  0.2467416539781340   T   T   T
 
  0.00000000E+00  0.00000000E+00  0.00000000E+00
  0.00000000E+00  0.00000000E+00  0.00000000E+00
  0.00000000E+00  0.00000000E+00  0.00000000E+00
  0.00000000E+00  0.00000000E+00  0.00000000E+00
  0.00000000E+00  0.00000000E+00  0.00000000E+00
  0.00000000E+00  0.00000000E+00  0.00000000E+00
  0.00000000E+00  0.00000000E+00  0.00000000E+00
  0.00000000E+00  0.00000000E+00  0.00000000E+00
  0.00000000E+00  0.00000000E+00  0.00000000E+00
  0.00000000E+00  0.00000000E+00  0.00000000E+00
  0.00000000E+00  0.00000000E+00  0.00000000E+00
  0.00000000E+00  0.00000000E+00  0.00000000E+00
  0.00000000E+00  0.00000000E+00  0.00000000E+00
  0.00000000E+00  0.00000000E+00  0.00000000E+00
  0.00000000E+00  0.00000000E+00  0.00000000E+00
  0.00000000E+00  0.00000000E+00  0.00000000E+00
  0.00000000E+00  0.00000000E+00  0.00000000E+00
  0.00000000E+00  0.00000000E+00  0.00000000E+00
  0.00000000E+00  0.00000000E+00  0.00000000E+00
  0.00000000E+00  0.00000000E+00  0.00000000E+00
  0.00000000E+00  0.00000000E+00  0.00000000E+00
  0.00000000E+00  0.00000000E+00  0.00000000E+00
  0.00000000E+00  0.00000000E+00  0.00000000E+00
  0.00000000E+00  0.00000000E+00  0.00000000E+00
  0.00000000E+00  0.00000000E+00  0.00000000E+00
  0.00000000E+00  0.00000000E+00  0.00000000E+00
  0.00000000E+00  0.00000000E+00  0.00000000E+00
  0.00000000E+00  0.00000000E+00  0.00000000E+00
  0.00000000E+00  0.00000000E+00  0.00000000E+00
  0.00000000E+00  0.00000000E+00  0.00000000E+00
  0.00000000E+00  0.00000000E+00  0.00000000E+00
  0.00000000E+00  0.00000000E+00  0.00000000E+00
  0.00000000E+00  0.00000000E+00  0.00000000E+00
  0.00000000E+00  0.00000000E+00  0.00000000E+00
  0.00000000E+00  0.00000000E+00  0.00000000E+00
  0.00000000E+00  0.00000000E+00  0.00000000E+00
  0.00000000E+00  0.00000000E+00  0.00000000E+00
  0.00000000E+00  0.00000000E+00  0.00000000E+00
  0.00000000E+00  0.00000000E+00  0.00000000E+00
  0.00000000E+00  0.00000000E+00  0.00000000E+00
  0.00000000E+00  0.00000000E+00  0.00000000E+00
  0.00000000E+00  0.00000000E+00  0.00000000E+00
  0.00000000E+00  0.00000000E+00  0.00000000E+00
  0.00000000E+00  0.00000000E+00  0.00000000E+00
  0.00000000E+00  0.00000000E+00  0.00000000E+00
  0.00000000E+00  0.00000000E+00  0.00000000E+00
  0.00000000E+00  0.00000000E+00  0.00000000E+00
  0.00000000E+00  0.00000000E+00  0.00000000E+00
  0.00000000E+00  0.00000000E+00  0.00000000E+00
  0.00000000E+00  0.00000000E+00  0.00000000E+00
  0.00000000E+00  0.00000000E+00  0.00000000E+00
  0.00000000E+00  0.00000000E+00  0.00000000E+00
  0.00000000E+00  0.00000000E+00  0.00000000E+00
  0.00000000E+00  0.00000000E+00  0.00000000E+00
  0.00000000E+00  0.00000000E+00  0.00000000E+00
  0.00000000E+00  0.00000000E+00  0.00000000E+00
  0.00000000E+00  0.00000000E+00  0.00000000E+00
  0.00000000E+00  0.00000000E+00  0.00000000E+00
  0.00000000E+00  0.00000000E+00  0.00000000E+00
  0.00000000E+00  0.00000000E+00  0.00000000E+00
  0.00000000E+00  0.00000000E+00  0.00000000E+00
  0.00000000E+00  0.00000000E+00  0.00000000E+00
  0.00000000E+00  0.00000000E+00  0.00000000E+00
  0.00000000E+00  0.00000000E+00  0.00000000E+00
  0.00000000E+00  0.00000000E+00  0.00000000E+00
  0.00000000E+00  0.00000000E+00  0.00000000E+00
  0.00000000E+00  0.00000000E+00  0.00000000E+00
  0.00000000E+00  0.00000000E+00  0.00000000E+00
  0.00000000E+00  0.00000000E+00  0.00000000E+00
  0.00000000E+00  0.00000000E+00  0.00000000E+00
  0.00000000E+00  0.00000000E+00  0.00000000E+00
  0.00000000E+00  0.00000000E+00  0.00000000E+00
  0.00000000E+00  0.00000000E+00  0.00000000E+00
  0.00000000E+00  0.00000000E+00  0.00000000E+00
  0.00000000E+00  0.00000000E+00  0.00000000E+00
  0.00000000E+00  0.00000000E+00  0.00000000E+00
  0.00000000E+00  0.00000000E+00  0.00000000E+00
  0.00000000E+00  0.00000000E+00  0.00000000E+00
  0.00000000E+00  0.00000000E+00  0.00000000E+00
  0.00000000E+00  0.00000000E+00  0.00000000E+00
  0.00000000E+00  0.00000000E+00  0.00000000E+00
  0.00000000E+00  0.00000000E+00  0.00000000E+00
  0.00000000E+00  0.00000000E+00  0.00000000E+00
  0.00000000E+00  0.00000000E+00  0.00000000E+00
  0.00000000E+00  0.00000000E+00  0.00000000E+00
  0.00000000E+00  0.00000000E+00  0.00000000E+00
  0.00000000E+00  0.00000000E+00  0.00000000E+00
  0.00000000E+00  0.00000000E+00  0.00000000E+00
  0.00000000E+00  0.00000000E+00  0.00000000E+00
  0.00000000E+00  0.00000000E+00  0.00000000E+00
  0.00000000E+00  0.00000000E+00  0.00000000E+00
  0.00000000E+00  0.00000000E+00  0.00000000E+00
  0.00000000E+00  0.00000000E+00  0.00000000E+00
  0.00000000E+00  0.00000000E+00  0.00000000E+00
  0.00000000E+00  0.00000000E+00  0.00000000E+00
  0.00000000E+00  0.00000000E+00  0.00000000E+00
  0.00000000E+00  0.00000000E+00  0.00000000E+00
  0.00000000E+00  0.00000000E+00  0.00000000E+00
  0.00000000E+00  0.00000000E+00  0.00000000E+00
  0.00000000E+00  0.00000000E+00  0.00000000E+00
  0.00000000E+00  0.00000000E+00  0.00000000E+00
  0.00000000E+00  0.00000000E+00  0.00000000E+00
  0.00000000E+00  0.00000000E+00  0.00000000E+00
  0.00000000E+00  0.00000000E+00  0.00000000E+00
  0.00000000E+00  0.00000000E+00  0.00000000E+00
  0.00000000E+00  0.00000000E+00  0.00000000E+00
  0.00000000E+00  0.00000000E+00  0.00000000E+00
  0.00000000E+00  0.00000000E+00  0.00000000E+00
  0.00000000E+00  0.00000000E+00  0.00000000E+00
  0.00000000E+00  0.00000000E+00  0.00000000E+00
  0.00000000E+00  0.00000000E+00  0.00000000E+00
  0.00000000E+00  0.00000000E+00  0.00000000E+00
  0.00000000E+00  0.00000000E+00  0.00000000E+00
  0.00000000E+00  0.00000000E+00  0.00000000E+00
  0.00000000E+00  0.00000000E+00  0.00000000E+00
  0.00000000E+00  0.00000000E+00  0.00000000E+00
  0.00000000E+00  0.00000000E+00  0.00000000E+00
  0.00000000E+00  0.00000000E+00  0.00000000E+00
  0.00000000E+00  0.00000000E+00  0.00000000E+00
  0.00000000E+00  0.00000000E+00  0.00000000E+00
  0.00000000E+00  0.00000000E+00  0.00000000E+00
  0.00000000E+00  0.00000000E+00  0.00000000E+00
  0.00000000E+00  0.00000000E+00  0.00000000E+00
  0.00000000E+00  0.00000000E+00  0.00000000E+00
  0.00000000E+00  0.00000000E+00  0.00000000E+00
  0.00000000E+00  0.00000000E+00  0.00000000E+00
  0.00000000E+00  0.00000000E+00  0.00000000E+00
  0.00000000E+00  0.00000000E+00  0.00000000E+00
  0.00000000E+00  0.00000000E+00  0.00000000E+00
  0.00000000E+00  0.00000000E+00  0.00000000E+00
  0.00000000E+00  0.00000000E+00  0.00000000E+00
  0.00000000E+00  0.00000000E+00  0.00000000E+00
  0.00000000E+00  0.00000000E+00  0.00000000E+00
  0.00000000E+00  0.00000000E+00  0.00000000E+00
  0.00000000E+00  0.00000000E+00  0.00000000E+00
  0.00000000E+00  0.00000000E+00  0.00000000E+00
  0.00000000E+00  0.00000000E+00  0.00000000E+00
  0.00000000E+00  0.00000000E+00  0.00000000E+00
  0.00000000E+00  0.00000000E+00  0.00000000E+00
  0.00000000E+00  0.00000000E+00  0.00000000E+00
  0.00000000E+00  0.00000000E+00  0.00000000E+00
  0.00000000E+00  0.00000000E+00  0.00000000E+00
  0.00000000E+00  0.00000000E+00  0.00000000E+00
  0.00000000E+00  0.00000000E+00  0.00000000E+00
  0.00000000E+00  0.00000000E+00  0.00000000E+00
  0.00000000E+00  0.00000000E+00  0.00000000E+00
  0.00000000E+00  0.00000000E+00  0.00000000E+00
  0.00000000E+00  0.00000000E+00  0.00000000E+00
  0.00000000E+00  0.00000000E+00  0.00000000E+00
  0.00000000E+00  0.00000000E+00  0.00000000E+00
  0.00000000E+00  0.00000000E+00  0.00000000E+00
  0.00000000E+00  0.00000000E+00  0.00000000E+00
  0.00000000E+00  0.00000000E+00  0.00000000E+00
  0.00000000E+00  0.00000000E+00  0.00000000E+00
  0.00000000E+00  0.00000000E+00  0.00000000E+00
  0.00000000E+00  0.00000000E+00  0.00000000E+00
