largec1CONTCARfar                       
   1.00000000000000     
    28.0032997130999988    0.0000000000000000    0.0000000000000000
     0.0000000000000000   16.1676998137999988    0.0000000000000000
     0.0000000000000000    0.0000000000000000   30.0000000000000000
   C    P    S    Cu   In
   172    28    84    14    14
Direct
 -0.5787453499031656  1.7066165194268157  0.3936993686942650
 -0.0789213683388543  2.2142940083774585  0.4103794886165447
 -0.5093961290097488  2.6151864136413732  0.3972158022009689
 -0.0071373344680375  2.1137622741579567  0.4056685550713918
 -0.4382986714140322  2.5247981674446511  0.4011375810482533
  0.0603560405295823  2.0202480063041217  0.4096276019809116
 -0.3706503079499195  2.4321518166135645  0.4071594271627744
  0.1308024792025400  1.9300122396011599  0.4100146078522635
 -0.3017189676482754  2.3383996793023631  0.4046363879914811
  0.2007802384068507  1.8362282967342900  0.4004888919714726
 -0.2329248968057065  2.2472104080163207  0.4100598733056983
  0.2682871822517368  1.7418703050563582  0.3963130931991830
 -0.6601244539683288  1.6544299215586342  0.3910969450395272
 -0.1611683674285604  2.1536254828580499  0.4099481917913889
 -0.4989618253672221  1.7659065155325664  0.3991379449945009
  0.0017833958764669  2.2709074935410247  0.4089833685594164
 -0.4304925180074999  1.6731724046487071  0.3963483105010216
  0.0722084420071678  2.1775381376733063  0.4104581286895420
 -0.3576627416674643  2.5814861762198054  0.4010397522170967
  0.1421479338848955  2.0807540559325566  0.4101800044752997
 -0.2903343522217151  2.4897932282650679  0.4017835914516406
  0.2096919217482135  1.9881584935209535  0.4025798439052454
 -0.2200561469995961  2.3947253975615794  0.4040224627606534
  0.2810421594169079  1.8959212927796383  0.3926174317409744
 -0.6511032192806381  1.8026274244292031  0.3946290965355022
 -0.1481654364260537  2.3052534226978976  0.4067452903561711
 -0.4193068225276744  1.8276367350582614  0.3989762743864295
  0.0831198999020623  2.3302175392073159  0.4094730996692152
 -0.3480994517061972  1.7335005753404442  0.4032105839952763
  0.1526710902883363  2.2347895777182472  0.4034685793009076
 -0.2768868131295634  2.6402780377581752  0.3991190359480360
  0.2230214948770665  2.1422596293573877  0.3989838163963458
 -0.2089193166612194  2.5484644212611176  0.4036458716727624
  0.2919238814915687  2.0483215742703957  0.3926976818952250
 -0.6376492914139869  1.9555502034076608  0.3912131567147277
 -0.1407111577244967  2.4587633169232976  0.4089171198069332
 -0.5703491395096119  1.8594101461900046  0.4012700451990598
 -0.0696626609939111  2.3645594057303687  0.4047667647028251
 -0.3350322657056104  1.8820924879173795  0.3998181003451195
  0.1652265774051614  2.3828806316675180  0.3965615448133097
 -0.2653975862903625  1.7937675916823210  0.4037153518074338
  0.2330357079465061  2.2953181979007531  0.3906394192184568
 -0.1958057547534793  1.7070799205088598  0.4007765997368212
  0.3023529979083741  2.1994304669837588  0.3908160711166718
 -0.6258150698239753  2.1092151493373628  0.3862511936006576
 -0.1263210883403343  2.6108804659986293  0.4023046954083107
 -0.5585756844534391  2.0141238558983607  0.3889919868604249
 -0.0594270928269106  2.5146404626718262  0.4031864048349542
 -0.4901805140694462  1.9208418674805223  0.3986688081655684
  0.0112789834840480  2.4251608894777830  0.4089864578785786
 -0.2558749355386318  1.9447550324926541  0.4037146905036209
  0.2476206373694022  2.4441621178991144  0.3953090237591771
 -0.1856242429136695  1.8570183478936262  0.4044148282674080
  0.3140048568514491  2.3497677156937447  0.3890565315019362
 -0.6150656817167496  2.2598432791118870  0.3910713382995667
 -0.1147491349942390  1.7585731528336721  0.4021377326207439
 -0.5436605525083188  2.1711620034260002  0.3883364918174771
 -0.0457135616120733  1.6650728087178379  0.3998824032488968
 -0.4751638018404762  2.0734558594380514  0.3910532787671726
  0.0248634752797731  2.5773859047656322  0.4032031830888158
 -0.4054487462055517  1.9805084949020884  0.3904602179563110
  0.0944109888398904  2.4818131445192413  0.4015267454929140
 -0.1729735262144261  2.0043932330213723  0.4077895147500676
  0.3284650223279361  2.5052076513049153  0.3938953487455382
 -0.6032565485235022  2.4095026575737992  0.3884119316529356
 -0.1023023228049822  1.9076600023323684  0.4026275400714598
 -0.5325592742973142  2.3139578301281509  0.3929024999717175
 -0.0313649057567059  1.8148968064363251  0.4012638369422522
 -0.4627028681224550  2.2195256560023622  0.3960724591105846
  0.0363621654194788  1.7256949671882562  0.4015271053705212
 -0.3933709104370168  2.1314519032076307  0.3986807360313855
  0.1061925712534908  2.6318124923505670  0.4025797394602509
 -0.3234911246427243  2.0374256748995991  0.4005467700062656
  0.1777223212912939  2.5346499832485399  0.4019024917066646
 -0.5909144231930785  2.5614325932126900  0.3918241419458283
 -0.0907532441687497  2.0602205373864737  0.4110280252620060
 -0.5208943279464897  2.4699254014849528  0.3901215811785340
 -0.0199125093030210  1.9675456786407257  0.4031249435666590
 -0.4534328916893787  2.3706153533272945  0.3998751867262279
  0.0509597392651848  1.8697583109879274  0.4008508878793812
 -0.3822143235482838  2.2796645549721712  0.4044610461005370
  0.1180745454742747  1.7810645895712385  0.4022380277620847
 -0.3136662344558849  2.1883485659798625  0.4117561037476395
  0.1871780389519056  1.6827847161622123  0.3990593335750870
 -0.2433921430783504  2.0943540980381630  0.4078402662170616
  0.2583300832678122  2.5925395728120550  0.3996034653785174
 -0.5595236848592071  2.6284778387197711  0.3939315805253839
 -0.0590998541357370  2.1277951607020502  0.4066756734234717
 -0.4899938182828689  2.5340313108886043  0.3973065630493136
  0.0120171307792473  2.0309395167365958  0.4039137636806369
 -0.4198693138541495  2.4389402540325729  0.4044598715527390
  0.0804386422427496  1.9423354683089171  0.4056579792971471
 -0.3500439775629625  2.3492250762325906  0.4050087645439591
  0.1492763223494289  1.8517311843345028  0.4048236405784677
 -0.4786453807115811  1.6845978401033888  0.3984416064753493
  0.0214853261291418  2.1888428400300941  0.4095057588028391
 -0.4094945026514106  2.5954115173684009  0.4019640174518587
  0.0911344564407363  2.0893411420311874  0.4102205732971982
 -0.3407507266335402  2.5007395060403068  0.4056335385749004
  0.1613135092170342  2.0023305394586774  0.4106133541934532
 -0.2702252818652825  2.4074793581568019  0.4045942456035391
  0.2303204262313341  1.9082745387036337  0.3997816734643813
 -0.2000800739695594  2.3147350990537676  0.4037424870345751
  0.2995486608812294  1.8135585456730881  0.3914893261826594
 -0.6289828324266884  1.7217665488831646  0.3948214225743986
 -0.1297782120295867  2.2235944533329173  0.4087309125985731
 -0.4696951114890962  1.8369219697131813  0.4002038275368827
  0.0314433031133542  2.3407000357850434  0.4115761735159573
 -0.3967156158319709  1.7442531661508291  0.3975993939901433
  0.1040198347611578  2.2481827553084694  0.4073344091415531
 -0.3276061519812781  2.6522341524968618  0.4012523097365398
  0.1740645456014824  2.1533992917480012  0.4087553966392523
 -0.2589993581052641  2.5600122761827802  0.4009942539839188
  0.2408910036270878  2.0589372189341124  0.3984480471427468
 -0.1905606191204436  2.4655489320268384  0.4063196067524631
  0.3106102413674520  1.9664234447363302  0.3924571261993031
 -0.6201840129918381  1.8700161051662227  0.3939118417625593
 -0.1185634451364783  2.3781834799211947  0.4087150437137537
 -0.5504295980152654  1.7777218261079812  0.3991956432030809
 -0.0474241526864748  2.2849151945483230  0.4108462554409654
 -0.3883185621876828  1.9000751885223421  0.3975438212989051
  0.1150716023293469  2.3947272559003947  0.4065161680835093
 -0.3165976873503122  1.7990480331518741  0.4024459587908975
  0.1820298103494333  2.3031513327126967  0.3952614843025667
 -0.2454920517095776  1.7140890407765121  0.4023101413035550
  0.2539575179071067  2.2144303046045390  0.3915769269336619
 -0.1757233170277773  2.6218606241714544  0.4029056570726680
  0.3225624258836979  2.1177086310214337  0.3899570749090130
 -0.6085766335462047  2.0276607861312037  0.3882170321817360
 -0.1084932382819275  2.5293919377040530  0.4056651028905368
 -0.5401939295680778  1.9323292338054920  0.3992427925640345
 -0.0393287115213566  2.4357071749730927  0.4099078397072239
 -0.3053694907398005  1.9540245358601476  0.4048979830803634
  0.1948772018986679  2.4520851383352120  0.3959309272494050
 -0.2359105802691486  1.8649772871079553  0.4031598807638543
  0.2641815340384599  2.3640144449164762  0.3915794752761904
 -0.1660766310673006  1.7740799222405432  0.4023147985347785
  0.3347822589927988  2.2701301522196062  0.3927299101431626
 -0.5947673129311052  2.1794669221451177  0.3885975384753131
 -0.0951327578272346  1.6805701422935875  0.3990509188191893
 -0.5247350422391736  2.0841840490469492  0.3888520471022749
 -0.0280251039713799  2.5876748621874017  0.3989756395656032
 -0.4572640594137716  1.9882448442002785  0.3943137770981443
  0.0447531737565800  2.4955925660370362  0.4062382495314094
 -0.2234524641337823  2.0165966933570729  0.4057554169641240
  0.2768969150839666  2.5146050652753424  0.4025390011974514
 -0.6530680211374982  2.4217328136497849  0.3887534647077469
 -0.1520966849155356  1.9226765609552641  0.4033959448994164
 -0.5857959320146947  2.3270378140244703  0.3910975757997899
 -0.0830336815129071  1.8292824118328992  0.4013187355555737
 -0.5129748443858132  2.2379031604114306  0.3956447088218223
 -0.0137008160808567  1.7345520394914604  0.4052337708930255
 -0.4439921367831878  2.1412317626986819  0.3843621237608845
  0.0568904053495346  2.6453326433535156  0.4017140249292197
 -0.3749516372588273  2.0466617331106094  0.3975078170310791
  0.1253824428142834  2.5510825463433981  0.4004130451277172
 -0.6407413522806721  2.5745829008811958  0.3912047728129499
 -0.1416034703021593  2.0716071070164577  0.4116974902464053
 -0.5739087528102373  2.4770405828955626  0.3896618066293391
 -0.0701325280233515  1.9774477734271663  0.4043328538869714
 -0.5023038184796806  2.3857035112111968  0.3970001674926085
  0.0035271778761659  1.8819446629891559  0.4019696447043142
 -0.4317331098877280  2.2903605948922299  0.3978928760477383
  0.0693558654645641  1.7885655795721207  0.4032306871549179
 -0.3639077519690563  2.1986042213625052  0.4043169788372132
  0.1390382836976317  1.7020593329241007  0.4012394138536309
 -0.2938443012174872  2.1074906188409561  0.4049428289970984
  0.2078862178762095  2.6026187520009745  0.4029634225522775
 -0.2823914720350673  2.2571011689616971  0.4089314600526117
  0.2190519637498319  1.7550842346351925  0.3972931897376027
 -0.2120750641165948  2.1662757943272837  0.4084701596446013
  0.2897140258471572  1.6624515530436845  0.3936000514513097
  0.5113954496540836 -0.1233543814624988  0.1804420134934193
  1.0079047419049092  0.3662187375404871  0.1953713877209724
  0.3702240688397870  0.1629854339607681  0.1738906253278561
  0.8684174221445017 -0.3553300499335605  0.1848565409215665
  0.2922850186655086 -0.2150227626260778  0.1829107758356725
  0.7946767790104386  0.2900359562524402  0.1781019366051601
  0.6540631085533675 -0.4136046379753560  0.1775182952985987
  1.1530821612004016  0.0633468472932492  0.1889536755809850
  0.5781103580117892  0.2293810277001849  0.1696794773925796
  1.0845643574866239 -0.2747574316839834  0.1891804816761025
  0.4435857561270871 -0.4895174187767410  0.1794875789291111
  0.9448474459048706  0.0066886048933992  0.2049736496340098
  0.2212825993562755  0.4325146601834878  0.1852703836585154
  0.7276724548990167 -0.0653563007805559  0.1791373683366597
  0.2257266408369513  0.4258392405174664  0.2574725749530342
  0.7228781345014408 -0.0721453484208852  0.2552772083347141
  0.5125975564756923 -0.1267815075307863  0.2529972954195979
  1.0112631254779421  0.3624080212338021  0.2678878250943451
  0.3671535812882782  0.1467928430409706  0.2470823664196763
  0.8733376117104419 -0.3563587833545045  0.2629355154171905
  0.3007834321320849 -0.2092844078038509  0.2596653556073418
  0.7962194289171113  0.2946727145780256  0.2569849074363484
  0.6499281512048924 -0.4138193866093566  0.2526169286334800
  1.1581835667046476  0.0715917834538165  0.2660378077890167
  0.5797281940287514  0.2291321963770016  0.2514749231954556
  1.0871911411654325 -0.2789520040360636  0.2653963737114848
  0.4345819848983377 -0.4891994052658252  0.2551582018542295
  0.9424638687210593  0.0051645707688175  0.2783602391704559
  0.4794409686979726 -0.2327521601118363  0.1599236859985395
  0.9845004121223383  0.2479450703344359  0.1784624037230371
  0.3511176715297184  0.0452733427630473  0.1537366727104158
  0.8339328513218893 -0.4597978117945906  0.1677368524100923
  0.7000617620906572 -0.1746740066010035  0.1557591231349064
  1.1987292000918719  0.3213447437062746  0.1632575150409151
  0.2596707248958179 -0.3214254482155675  0.1690144183053753
  0.7745853882007632  0.1703627109769647  0.1701257976540638
  0.6353308355417673 -0.5340207467162900  0.1657437240624779
  1.1340985566018269 -0.0525529707730400  0.1735383663260329
  0.5537791433046354  0.1125230490148091  0.1524855801295865
  1.0537275349948896 -0.3829928366213515  0.1677165258415940
  0.4229975560188826  0.4067933624412912  0.1535073984796343
  0.9180661145782617 -0.1033014581128499  0.1833475873813272
  0.4646840041593872 -0.0307380905076096  0.1640069790613568
  0.9653072623570078 -0.5353011914724585  0.1825886041217654
  0.3237651899006043  0.2564310194738859  0.1618623696225030
  0.8296176293133634 -0.2520891461101887  0.1673689033612298
  0.2504499776253237 -0.1162647987782861  0.1682040881402141
  0.7490599754959004  0.3826415179255655  0.1623296665657339
  0.6076477799202734 -0.3360307346819740  0.1551333220623483
  1.1059549915969757  0.1519126430484558  0.1726371561752952
  0.6873411680001322  0.0369085821672027  0.1654510792073438
  1.1846248805883042 -0.4673070706872999  0.1698533559031578
  0.5431324504638094  0.3434794616078882  0.1625580372973119
  1.0421071300352311 -0.1777926263851556  0.1702347074640172
  0.3969375861242540 -0.3961175732013000  0.1685594324277209
  0.8994775888303197  0.1071104221573220  0.1884489463970008
  0.5759358037443807 -0.0999081482482568  0.1577025558635284
  1.0713978574783869  0.3812239140506851  0.1694202058464463
  0.4419357391194814  0.1894192504550835  0.1570177665695670
  0.9411738013938606 -0.3471658387056162  0.1634893488048421
  0.3550167613179832 -0.1871864682956292  0.1517318576503995
  0.8632210330908598  0.3211912012448683  0.1615543715673882
  0.7234652596764388 -0.3887779256708026  0.1580747781755024
  1.2202242209839158  0.0955451233495711  0.1732169231715803
  0.6483853033541147  0.2377570641891667  0.1586755982125038
  1.1551672759315368 -0.2690320665309647  0.1777834309618007
  0.5093221228099484 -0.4609806593806398  0.1537260205740265
  1.0125565087209774  0.0133894258686811  0.1841985230109217
  0.2897046403299619 -0.5516209130828947  0.1628226412787001
  0.8001480918186417 -0.0520852397727837  0.1768517779406337
  0.5555927844330802 -0.2223164823328831  0.2697200183763909
  1.0582994750361763  0.2788022805212818  0.2893241148108195
  0.4114519693627883  0.0467769516641758  0.2697467991990907
  0.9094733574589364 -0.4538125793771228  0.2822878850721390
  0.2735342565851376  0.3280964431951492  0.2759424752314086
  0.7626182405438062 -0.1618518301859091  0.2828954340033082
  0.3424532691808154 -0.3106656984925258  0.2750439797334535
  0.8426082153073473  0.2090324279210874  0.2807417276418216
  0.6898199669762578 -0.5121243221656712  0.2739702741600790
  1.2020573407841535 -0.0219203813412091  0.2819652953457898
  0.6211334673346397  0.1313237591124440  0.2768019683444727
  1.1258704335226035 -0.3815663875544587  0.2815181256576939
  0.4745705375293287  0.4175992274592176  0.2799790660946662
  0.9879427870831374 -0.1000012169423115  0.2925688133110963
  0.5434990268948073 -0.0132778399986471  0.2715010064218191
  1.0415689823362182 -0.5237471474582488  0.2865454683199222
  0.3911186334723160  0.2584299881043957  0.2713773840599926
  0.8991764176672141 -0.2455886276496740  0.2799643769355190
  0.3300082090127608 -0.1020857181104450  0.2768274396700559
  0.8185157155405651  0.4126582267035042  0.2844104794382579
  0.6811765595370454 -0.3064096959323307  0.2788965471436244
  1.1902680870314399  0.1698181351673071  0.2890006515709841
  0.2535135625438946 -0.4623557518308605  0.2814898950762383
  0.7540115355434664  0.0424021302220670  0.2792407416764059
  0.6103392310785031  0.3394184996317367  0.2756980002904837
  1.1129321935742775 -0.1699503335960962  0.2921503910067797
  0.4678043112236192 -0.3750399850502915  0.2708111217411738
  0.9676616761423932  0.1157387755544299  0.2964058654525273
  0.6512926971082331 -0.0680929289214982  0.2723189643307166
  1.1575789107958485  0.4121477971796371  0.2759158128019186
  0.4466003977204625 -0.1436795924070384  0.2745844414919464
  0.9398067598503691  0.3366153303859937  0.2862218440840490
  0.2999870302938893  0.1314705047863295  0.2700037293173050
  0.8034407385687008 -0.3586063339481287  0.2822785916824090
  0.2325228089868399 -0.2228615409789931  0.2892742956514210
  0.7257929397453527  0.2828709290936252  0.2788314474903428
  0.5753720210036883 -0.4327215765047248  0.2638887104760355
  1.0883564850804546  0.0591260160472244  0.2877906110188342
  0.5092354654830817  0.2161993928623002  0.2728472629542601
  1.0162498652526266 -0.2906382145372145  0.2888556519559463
  0.3683862446539141 -0.5077892710227662  0.2728921374537275
  0.8745816453649609 -0.0155386013439283  0.2957363944758540
  0.4865074441975515  0.0882221615352868  0.2626343090519118
  0.9830634392593307 -0.4242192965827203  0.2767996221848270
  0.4191219750995979 -0.2749127282273462  0.2700981043294221
  0.9204925200009273  0.2029723594911180  0.2600738350960800
  0.2846767751373614  0.0059695293516251  0.2545267771895568
  0.7656585024525643 -0.4833644813293343  0.2744842863805243
  0.6322207781516868 -0.1962513667505550  0.2535945711189843
  1.1365362224663482  0.2750379168765441  0.2655332030268018
  0.7001807705630058  0.1514900160092393  0.2714904819387363
  1.2015151591866069 -0.3445664165728682  0.2686595183999725
  0.5516755180763834  0.4301739608859994  0.2562180174557160
  1.0554008497914789 -0.0612496382160319  0.2743116100504452
  0.3438897280382896  0.3622765302722607  0.2552886595019566
  0.8469721983137948 -0.1430378193949243  0.2807419174831082
  0.6080668467801954  0.0232753562521583  0.2051934115641274
  1.0974980219147967 -0.4911685804977644  0.2146994705199948
  0.3896304606412313 -0.0538404397499200  0.2052905948064404
  0.8838313359212376  0.4328003871874626  0.2187768343287998
  0.2450525870635552  0.2252931045588175  0.2100932807912718
  0.7510267088520550 -0.2823409722401692  0.2198978605251556
  0.3165418416002579 -0.4249418846142171  0.2109652010410923
  0.8262955701456123  0.0734228369879384  0.2313612493908875
  0.6772595289119053  0.3603546060409533  0.2152477365096309
  1.1794513498968628 -0.1402034792152715  0.2208479374431854
  0.5337151764457059 -0.3385371088748886  0.2044709208764353
  1.0379286689148830  0.1474297227550149  0.2323119683713699
  0.4645236169999356  0.3081815366528315  0.2089993133463756
  0.9703136479098839 -0.2279372147019443  0.2121049540715133
 
  0.27126052E-02  0.58003931E-02 -0.52603606E-02
  0.65456131E-02  0.31105417E-02  0.61155507E-02
 -0.66449638E-02  0.43433898E-02  0.21200568E-02
  0.56180475E-03 -0.24677863E-02  0.41930239E-02
 -0.25051965E-02  0.26709925E-02 -0.41017713E-03
  0.45954499E-04  0.11652625E-01 -0.13331559E-02
 -0.67181448E-02  0.27689205E-02  0.53073316E-02
 -0.16096984E-02  0.10492965E-02  0.24345250E-02
 -0.50991922E-02  0.64388881E-02  0.22656424E-02
 -0.68929476E-02  0.14970012E-02  0.58111865E-02
  0.10147763E-02  0.25286085E-02  0.66520641E-03
 -0.23176099E-02 -0.10536831E-01 -0.36834504E-02
  0.57194651E-02 -0.64837406E-02  0.53704374E-02
  0.24955899E-02  0.47896218E-02  0.68171382E-02
 -0.40802829E-02 -0.52583653E-02 -0.53873839E-02
 -0.12821063E-02  0.32251452E-02 -0.80189975E-02
  0.28045867E-02  0.13689442E-03 -0.40417487E-02
 -0.44198068E-02 -0.12590919E-02 -0.12911008E-02
 -0.21120441E-02 -0.10975188E-01 -0.60147240E-02
 -0.41291759E-02 -0.64947334E-02 -0.15284613E-01
 -0.54050702E-03 -0.28071748E-02 -0.45925660E-03
  0.14437124E-02  0.22189372E-02  0.19091986E-02
  0.13311509E-01  0.21830399E-02  0.39761179E-02
 -0.23767386E-02 -0.76608925E-02  0.51347247E-02
  0.23885014E-02  0.19213174E-02 -0.46709190E-02
  0.65790953E-02 -0.64574060E-02  0.98609945E-02
  0.24651887E-03 -0.85116913E-02  0.27261535E-02
  0.11165470E-01 -0.40892917E-02 -0.44136285E-02
 -0.35609779E-02 -0.36788998E-02 -0.76361587E-02
 -0.18224172E-02  0.87884131E-02 -0.10445428E-01
 -0.42945596E-02  0.43697721E-02  0.34204554E-02
 -0.20853800E-02  0.74654683E-02 -0.10674870E-01
  0.19863615E-02  0.13257971E-01  0.52785527E-02
  0.63580614E-03  0.29631028E-02 -0.24341515E-02
 -0.11229767E-01 -0.57358590E-02  0.43168650E-02
  0.61815232E-02  0.15447801E-02  0.67799996E-02
 -0.11813430E-02 -0.58796724E-02 -0.71857747E-02
  0.22925412E-02  0.90956129E-03  0.83160095E-02
  0.11672274E-02 -0.81360422E-03  0.27873434E-02
 -0.71461621E-02 -0.28038850E-02  0.13114062E-01
  0.35065476E-02  0.20863790E-02 -0.49018760E-02
 -0.23443842E-02 -0.61302208E-02  0.48620707E-02
 -0.31088812E-02 -0.29719122E-02 -0.67970504E-02
 -0.79142504E-03  0.42592272E-02  0.35593912E-02
  0.21843987E-02  0.11544899E-01 -0.93608127E-02
  0.62396644E-02  0.77457778E-03 -0.34205900E-02
  0.21514481E-02  0.50924096E-02  0.23105587E-02
 -0.57661491E-02 -0.50980379E-03 -0.52058287E-02
  0.46529778E-02  0.32639767E-03  0.50838992E-02
 -0.80573009E-02  0.47681685E-02  0.54258037E-02
  0.55603525E-02 -0.22433678E-02  0.95072635E-02
  0.25230190E-02 -0.25950904E-03  0.93371930E-02
 -0.89275231E-02  0.32640817E-02 -0.39569044E-03
  0.65492311E-02  0.11421361E-01 -0.12426990E-02
  0.20615626E-02 -0.13804155E-02 -0.28805216E-02
  0.30772738E-03  0.40093659E-02 -0.29839083E-02
 -0.31583183E-04  0.78042530E-02  0.39995537E-02
  0.37183845E-02 -0.46252263E-02  0.29535583E-02
 -0.31290996E-02  0.36610730E-03  0.10498461E-02
  0.11178008E-01  0.21488006E-03  0.87995410E-02
 -0.40968157E-02 -0.62334302E-02 -0.13149801E-02
 -0.43236495E-02 -0.62885166E-02 -0.24436158E-02
 -0.39890888E-02 -0.93536062E-03 -0.77428830E-02
  0.21637980E-02  0.26123538E-02 -0.22392759E-02
  0.11895493E-02 -0.99050003E-02  0.18008031E-02
  0.64467590E-02 -0.68331582E-02 -0.50363443E-02
  0.28869572E-02 -0.21009685E-02  0.55091547E-02
  0.25569012E-02  0.59937156E-02  0.91148447E-02
 -0.10239779E-01  0.10467070E-01  0.19182832E-02
  0.11566583E-03  0.47096417E-02 -0.60785410E-02
  0.84457294E-02 -0.60482438E-02 -0.34480932E-02
  0.23588512E-02 -0.31155445E-02 -0.32664261E-02
  0.58816700E-02  0.64306286E-02 -0.34261253E-02
 -0.41854921E-02  0.15518164E-02  0.26510852E-02
  0.40591797E-03  0.66109716E-02 -0.18054631E-02
  0.90352026E-02  0.21700129E-02  0.62322051E-02
  0.34555188E-03 -0.77287935E-03 -0.55616222E-02
  0.33347735E-02 -0.57836361E-02 -0.64435807E-02
 -0.99412083E-03 -0.29925712E-02 -0.22188651E-02
  0.19995023E-02 -0.91745599E-02 -0.37883357E-02
 -0.55065059E-02  0.45880487E-02  0.37109480E-02
  0.25303014E-02  0.96860742E-03 -0.23021379E-02
  0.43018100E-02 -0.73808119E-02  0.26845726E-04
 -0.45683034E-02  0.82289217E-02 -0.18240037E-02
 -0.65853603E-02 -0.85653037E-03 -0.21026374E-02
 -0.95672371E-02  0.12286845E-03 -0.34020052E-02
  0.20991031E-02  0.62250634E-02  0.63213773E-02
 -0.14239688E-02 -0.15421378E-01 -0.18101218E-02
  0.57112385E-02 -0.35286808E-03  0.12860346E-02
  0.10522766E-03  0.88787603E-04  0.82698835E-02
  0.72802307E-02  0.68467502E-02 -0.18486848E-02
  0.59774070E-02 -0.65145061E-02 -0.12489375E-01
 -0.55293784E-02  0.38413869E-03  0.24185103E-02
  0.11935146E-03  0.28148974E-02  0.11251307E-01
 -0.45927524E-02 -0.68696547E-02 -0.13170258E-01
  0.15450224E-02 -0.12818571E-01  0.83531987E-02
 -0.14353845E-02  0.72847816E-02  0.63128393E-02
 -0.16168199E-01  0.35711612E-02 -0.11660671E-02
  0.33824681E-03 -0.27431189E-02 -0.23333452E-03
 -0.13819614E-02 -0.12638102E-02 -0.14593221E-02
 -0.69549579E-02  0.54854145E-02 -0.49603213E-02
  0.46442620E-02  0.55815892E-02  0.37716730E-02
 -0.12690928E-02 -0.13789130E-02 -0.88696665E-02
 -0.65414316E-02 -0.43200802E-02  0.31787244E-02
 -0.19203179E-02  0.81736025E-03 -0.25382128E-02
  0.72881903E-02 -0.25722665E-02 -0.12649728E-01
 -0.80722019E-02 -0.68983692E-02  0.60723478E-02
  0.68860597E-02  0.22462483E-02  0.12169304E-03
 -0.13115310E-01 -0.17117720E-02  0.47324759E-02
  0.12426217E-01  0.79047672E-02 -0.53977846E-02
 -0.68972084E-02 -0.87812522E-02 -0.47866940E-02
 -0.56664908E-02 -0.47633032E-03 -0.22366803E-02
  0.11037629E-01  0.16525778E-01  0.66157332E-02
  0.34202380E-02  0.10449070E-02  0.73006609E-02
  0.37575475E-02 -0.15820923E-02 -0.80163791E-02
 -0.17846476E-02  0.41064029E-04  0.18894451E-02
 -0.32656843E-02  0.58368409E-02  0.22389888E-02
  0.56804472E-02 -0.62528835E-02  0.19122225E-02
  0.72337422E-02  0.62594356E-02 -0.49514997E-02
  0.61205906E-03 -0.57000486E-02 -0.16316517E-02
 -0.48137984E-02  0.69384541E-03 -0.36715764E-02
 -0.42114167E-02 -0.85655108E-03 -0.10046967E-01
  0.25773023E-02  0.10550279E-01 -0.23624275E-02
  0.54957924E-03  0.66484645E-02 -0.12891868E-01
  0.11395352E-01 -0.70608638E-02  0.17969376E-02
 -0.32899545E-02 -0.55231591E-02  0.39048727E-02
 -0.34646750E-02 -0.22495500E-02  0.56667892E-02
 -0.45691814E-02 -0.56794394E-03 -0.52472332E-02
  0.44630180E-02  0.31378356E-02 -0.20535851E-02
 -0.26919346E-02 -0.30466390E-02 -0.18789754E-02
  0.44764389E-02 -0.14845629E-01 -0.28531241E-02
  0.64734929E-02  0.66705200E-02  0.30235560E-02
  0.40930930E-02  0.25811798E-02  0.63869387E-03
  0.71827003E-02  0.55859234E-02  0.22869105E-02
 -0.10768621E-01  0.98134412E-02  0.24368413E-02
  0.18427171E-02  0.48802565E-02  0.57341803E-02
 -0.88560777E-02  0.36903335E-02 -0.27094435E-02
 -0.72297108E-03  0.97896226E-02 -0.42143659E-02
  0.27644043E-02 -0.61417485E-02  0.94607936E-03
  0.86820432E-02 -0.53216095E-02 -0.15414867E-02
 -0.40688467E-02  0.35257334E-02 -0.62636115E-02
  0.34638462E-02  0.40848505E-02  0.20055777E-02
  0.71448848E-02  0.91240797E-02  0.44454368E-02
  0.57105471E-02  0.28507847E-03  0.78219042E-02
 -0.15238326E-02  0.12836153E-04  0.13359250E-02
  0.29728397E-02  0.10353217E-01 -0.10324170E-02
  0.10740072E-02  0.44914593E-03 -0.10405933E-01
 -0.91786230E-02  0.72957744E-02  0.15512256E-02
  0.38687815E-02  0.54309819E-02 -0.26646464E-03
 -0.22838976E-02  0.41949676E-02 -0.24601801E-02
  0.85986583E-02 -0.20204888E-02 -0.59447140E-02
 -0.11270878E-01  0.11780764E-01  0.63303217E-02
  0.37483920E-02  0.19084076E-02  0.68963072E-02
 -0.35981543E-02 -0.61704288E-02  0.54144645E-02
 -0.29800138E-02 -0.22703133E-02 -0.10302768E-02
 -0.17213396E-02  0.19333457E-02 -0.42223408E-02
  0.36910342E-02 -0.91258082E-02 -0.13266185E-02
 -0.12852604E-01  0.50354183E-02  0.27753420E-02
  0.68147294E-02 -0.65901414E-03  0.16279676E-02
 -0.58726928E-02  0.37330748E-02  0.46223621E-03
  0.54291270E-02  0.64991635E-04  0.22520949E-02
  0.31212888E-02  0.62708422E-03 -0.40491801E-03
  0.10326466E-01 -0.23076281E-02 -0.54167867E-03
  0.13708682E-03  0.27520814E-02 -0.92032406E-03
 -0.54504429E-02 -0.66692517E-02 -0.29011337E-02
 -0.37248584E-02  0.23341734E-02 -0.42767471E-03
 -0.10290027E-02  0.35119106E-02 -0.20243364E-02
  0.24977977E-03  0.76672428E-03 -0.66483260E-02
  0.11466545E-01  0.28939074E-02  0.92729473E-02
  0.23346003E-03 -0.62578262E-02  0.47085460E-03
 -0.92673379E-03  0.25053551E-02  0.45570310E-02
 -0.24866990E-02  0.12161979E-01 -0.58038651E-02
 -0.37787848E-02  0.10221088E-02 -0.15724710E-02
 -0.25097384E-02 -0.49729164E-04 -0.11372286E-02
 -0.20449243E-02  0.11797642E-02  0.99147215E-03
 -0.63385137E-02  0.68840517E-02 -0.46654342E-02
  0.24866456E-02  0.66463192E-02  0.42343081E-02
 -0.24593352E-03 -0.26200631E-02 -0.14939797E-02
  0.40469339E-02 -0.57120671E-02 -0.88970566E-03
  0.57266791E-02 -0.34761689E-02  0.35331836E-02
 -0.22233470E-02  0.88866711E-02  0.22103496E-03
 -0.45182870E-02  0.30930116E-03 -0.92619224E-03
  0.38654357E-02  0.42230635E-02  0.28763138E-02
 -0.30413515E-02 -0.47261552E-02 -0.64799550E-02
  0.58472477E-02 -0.53934564E-02  0.16475618E-02
  0.24991556E-02 -0.20119895E-02 -0.29967443E-02
 -0.46460511E-02 -0.40067898E-03 -0.41504268E-03
 -0.34617227E-02  0.10829176E-02  0.20779768E-02
  0.19539533E-02 -0.22249165E-02 -0.57203719E-02
  0.15051070E-02 -0.11575089E-02 -0.10806778E-02
  0.32122985E-02  0.21815958E-02  0.56792598E-03
 -0.12665524E-02  0.51429413E-02 -0.67153524E-04
  0.20165684E-02 -0.12634621E-02 -0.44587072E-02
  0.30636008E-02 -0.43520808E-05 -0.20553586E-02
  0.25531845E-02 -0.31665123E-02 -0.15931182E-02
 -0.34742280E-02 -0.75164408E-02 -0.22282759E-02
  0.42269835E-02  0.36937157E-02  0.61423386E-03
 -0.34858546E-02 -0.53764777E-02  0.39377193E-02
 -0.53267868E-02  0.16800583E-02  0.15561832E-02
 -0.69372853E-02 -0.74640529E-03 -0.32282579E-02
  0.55028287E-02 -0.32258017E-02  0.15272245E-02
  0.16664196E-02  0.58775450E-02 -0.32013444E-02
 -0.49194486E-02  0.89444624E-03  0.16040848E-02
 -0.11895513E-01  0.53798083E-03  0.31536630E-02
 -0.16534387E-02 -0.33648682E-02  0.16734762E-02
 -0.17117041E-02  0.13613087E-02  0.13505295E-02
 -0.34751591E-02 -0.39825597E-02  0.22013861E-02
  0.12496659E-02  0.24161413E-02  0.40173312E-03
  0.74622547E-03  0.12119032E-02  0.65549932E-02
 -0.17874154E-02 -0.48114700E-03 -0.38178884E-02
  0.24559399E-02  0.29154059E-02  0.40153612E-02
  0.47795257E-02 -0.88122359E-03  0.10427062E-02
  0.11016435E-01 -0.16389284E-02  0.26196389E-02
 -0.53513935E-02  0.16104369E-02  0.21685586E-02
  0.27165073E-04 -0.31467952E-02 -0.44986985E-02
 -0.43295142E-04  0.92137384E-02  0.14749137E-02