 P  S Cu In                             
   1.00000000000000     
    14.0016529999999992    8.0838260000000002    0.0000000000000000
     0.0000000000000000   16.1677000000000000    0.0000000000000000
     0.0000000000000000    0.0000000000000000   30.0000000000000000
   P    S    Cu   In
    14    42     7     7
Direct
  0.8556400269289739  0.7120461611982165  0.2631548540299775
  0.4323194296102741  0.8556216310847802  0.2631571058091282
  0.7120750681904795  0.4323003219626784  0.2631605054479635
  0.2881930842595892  0.5681975788352531  0.2628531278183104
  0.5682177224475140  0.1435823138587438  0.2628466850739102
  0.1435965318601760  0.2881827130003103  0.2628342971609783
  0.0000158928245710  0.9999663756238562  0.2657710000000009
  0.0000310154277159  0.9999551183839799  0.1900947524475711
  0.8557209294385615  0.7115561965335928  0.1891770258834384
  0.4327152515886254  0.8556942414139073  0.1891763648556761
  0.7115772275199106  0.4327143372162681  0.1891821337881936
  0.2862955595637189  0.5714925142517231  0.1882141540558848
  0.5715239661268896  0.1421958783327710  0.1881988440666689
  0.1421474667173470  0.2862872205548612  0.1881685308390004
  0.9568649892749761  0.5786873372885140  0.2850560694105724
  0.5319739696765424  0.7212543866763923  0.2846866166757351
  0.1005959283253546  0.8645468476079188  0.2850911919977079
  0.8118824240178384  0.2974772725073294  0.2846620974652581
  0.3883724388902792  0.4337376686215606  0.2846515562914007
  0.6682143209449976  0.0093459502745148  0.2847047894061916
  0.2437515488112467  0.1537325014151065  0.2848324170649761
  0.7212719707020483  0.7467745278238525  0.2846953038688156
  0.2975135746310542  0.8905867084968193  0.2846622047475549
  0.5787127850016773  0.4644111496953087  0.2850534485125777
  0.1537412417677970  0.6025038708792181  0.2848469696883953
  0.8645755906992392  0.0348515191759375  0.2850934722762730
  0.4337604365521770  0.1778631198758944  0.2846454900878825
  0.0093684397900873  0.3224209749411884  0.2847065822806627
  0.8906264080374839  0.8118674004295343  0.2846566389058580
  0.4644660078441731  0.9568447041605168  0.2850429730295474
  0.7467809994917189  0.5319554615543396  0.2846920037505498
  0.3224267188777645  0.6681968591437979  0.2847029550935432
  0.6025174753748246  0.2437234574693790  0.2848451874106956
  0.1779019651942733  0.3883433321902032  0.2846425234903407
  0.0348680893384028  0.1005389799430034  0.2851056739811781
  0.9898314773093873  0.6774530941449939  0.1717919732981272
  0.5667577710081702  0.8219132653163470  0.1718236424177775
  0.1343419659180256  0.9653926869530949  0.1720621793337216
  0.8458550373231191  0.3979783261880669  0.1719836020241843
  0.4220343919617520  0.5332222450430848  0.1715964430439527
  0.7090424600379635  0.1013243598433746  0.1718568317982303
  0.2780837138501013  0.2455600099305855  0.1712385064947810
  0.7561607848214535  0.8458172455801929  0.1719779525701881
  0.3326978249276564  0.9897875931691260  0.1717820212155061
  0.6113644998527334  0.5667667916870869  0.1718302893877848
  0.1896650175796282  0.7090282483362529  0.1718761517900944
  0.9003204737767447  0.1343257771066106  0.1720815957321733
  0.4763555482949329  0.2781129731964072  0.1712622978399736
  0.0446810352756515  0.4220268155477171  0.1715712234651505
  0.9654116173711955  0.9002457931244976  0.1720641416655226
  0.8219043088554656  0.6113251231899142  0.1718307470759513
  0.3980255549876262  0.7561283641548044  0.1719779090731350
  0.6774962519427703  0.3327079418071861  0.1717886755411513
  0.2455271304836728  0.4763276105659742  0.1712661748562425
  0.5332349194866808  0.0447209557104458  0.1715980022766175
  0.1013317794398674  0.1896100161922121  0.1718534025899672
  0.6162602515044142  0.9048137306566844  0.2767361506360544
  0.9048186184308804  0.4789216519845638  0.2767341860578370
  0.4789234769003272  0.6162598796573633  0.2767336630799662
  0.0481490101145710  0.7592999503800328  0.2766575095918427
  0.7593028518910074  0.1925492944365601  0.2766586975652672
  0.3333441354008500  0.3333194780928039  0.2766293687012435
  0.1925521426307739  0.0481455121491550  0.2766616862379578
  0.8106872305997328  0.9480356445512115  0.2187822701109567
  0.6666801945246448  0.6667486997540593  0.2177354483694671
  0.2412770709302734  0.8107256783693231  0.2187744708363510
  0.9481079981267442  0.2412286232539884  0.2188356513492096
  0.5253147462696361  0.3804853518672999  0.2192222898172957
  0.0942234165083988  0.5252375616093019  0.2192200470332679
  0.3804679955547314  0.0942666742686811  0.2191853803416066
 
  0.00000000E+00  0.00000000E+00  0.00000000E+00
  0.00000000E+00  0.00000000E+00  0.00000000E+00
  0.00000000E+00  0.00000000E+00  0.00000000E+00
  0.00000000E+00  0.00000000E+00  0.00000000E+00
  0.00000000E+00  0.00000000E+00  0.00000000E+00
  0.00000000E+00  0.00000000E+00  0.00000000E+00
  0.00000000E+00  0.00000000E+00  0.00000000E+00
  0.00000000E+00  0.00000000E+00  0.00000000E+00
  0.00000000E+00  0.00000000E+00  0.00000000E+00
  0.00000000E+00  0.00000000E+00  0.00000000E+00
  0.00000000E+00  0.00000000E+00  0.00000000E+00
  0.00000000E+00  0.00000000E+00  0.00000000E+00
  0.00000000E+00  0.00000000E+00  0.00000000E+00
  0.00000000E+00  0.00000000E+00  0.00000000E+00
  0.00000000E+00  0.00000000E+00  0.00000000E+00
  0.00000000E+00  0.00000000E+00  0.00000000E+00
  0.00000000E+00  0.00000000E+00  0.00000000E+00
  0.00000000E+00  0.00000000E+00  0.00000000E+00
  0.00000000E+00  0.00000000E+00  0.00000000E+00
  0.00000000E+00  0.00000000E+00  0.00000000E+00
  0.00000000E+00  0.00000000E+00  0.00000000E+00
  0.00000000E+00  0.00000000E+00  0.00000000E+00
  0.00000000E+00  0.00000000E+00  0.00000000E+00
  0.00000000E+00  0.00000000E+00  0.00000000E+00
  0.00000000E+00  0.00000000E+00  0.00000000E+00
  0.00000000E+00  0.00000000E+00  0.00000000E+00
  0.00000000E+00  0.00000000E+00  0.00000000E+00
  0.00000000E+00  0.00000000E+00  0.00000000E+00
  0.00000000E+00  0.00000000E+00  0.00000000E+00
  0.00000000E+00  0.00000000E+00  0.00000000E+00
  0.00000000E+00  0.00000000E+00  0.00000000E+00
  0.00000000E+00  0.00000000E+00  0.00000000E+00
  0.00000000E+00  0.00000000E+00  0.00000000E+00
  0.00000000E+00  0.00000000E+00  0.00000000E+00
  0.00000000E+00  0.00000000E+00  0.00000000E+00
  0.00000000E+00  0.00000000E+00  0.00000000E+00
  0.00000000E+00  0.00000000E+00  0.00000000E+00
  0.00000000E+00  0.00000000E+00  0.00000000E+00
  0.00000000E+00  0.00000000E+00  0.00000000E+00
  0.00000000E+00  0.00000000E+00  0.00000000E+00
  0.00000000E+00  0.00000000E+00  0.00000000E+00
  0.00000000E+00  0.00000000E+00  0.00000000E+00
  0.00000000E+00  0.00000000E+00  0.00000000E+00
  0.00000000E+00  0.00000000E+00  0.00000000E+00
  0.00000000E+00  0.00000000E+00  0.00000000E+00
  0.00000000E+00  0.00000000E+00  0.00000000E+00
  0.00000000E+00  0.00000000E+00  0.00000000E+00
  0.00000000E+00  0.00000000E+00  0.00000000E+00
  0.00000000E+00  0.00000000E+00  0.00000000E+00
  0.00000000E+00  0.00000000E+00  0.00000000E+00
  0.00000000E+00  0.00000000E+00  0.00000000E+00
  0.00000000E+00  0.00000000E+00  0.00000000E+00
  0.00000000E+00  0.00000000E+00  0.00000000E+00
  0.00000000E+00  0.00000000E+00  0.00000000E+00
  0.00000000E+00  0.00000000E+00  0.00000000E+00
  0.00000000E+00  0.00000000E+00  0.00000000E+00
  0.00000000E+00  0.00000000E+00  0.00000000E+00
  0.00000000E+00  0.00000000E+00  0.00000000E+00
  0.00000000E+00  0.00000000E+00  0.00000000E+00
  0.00000000E+00  0.00000000E+00  0.00000000E+00
  0.00000000E+00  0.00000000E+00  0.00000000E+00
  0.00000000E+00  0.00000000E+00  0.00000000E+00
  0.00000000E+00  0.00000000E+00  0.00000000E+00
  0.00000000E+00  0.00000000E+00  0.00000000E+00
  0.00000000E+00  0.00000000E+00  0.00000000E+00
  0.00000000E+00  0.00000000E+00  0.00000000E+00
  0.00000000E+00  0.00000000E+00  0.00000000E+00
  0.00000000E+00  0.00000000E+00  0.00000000E+00
  0.00000000E+00  0.00000000E+00  0.00000000E+00
  0.00000000E+00  0.00000000E+00  0.00000000E+00
