carbon_up_CONTCAR_supper                
   1.00000000000000     
    28.0032999999999994    0.0000000000000000    0.0000000000000000
     0.0000000000000000   16.1677000000000000    0.0000000000000000
     0.0000000000000000    0.0000000000000000   30.0000000000000000
   C    P    S    Cu   In
   172    28    84    14    14
Selective dynamics
Direct
 -1.0287859296631181 -1.9773438882598702  0.4007262133694944   T   T   T
 -0.5275525299972241 -1.4764151619668557  0.4093150915527295   T   T   T
 -0.9592080346388913 -1.0681350271545229  0.3989335737547015   T   T   T
 -0.4590123132774806 -1.5687751854908161  0.3954734374285471   T   T   T
 -0.8887117358977289 -1.1600850653565544  0.4030253259108587   T   T   T
 -0.3898259352379572 -1.6588666972176553  0.3925051208271665   T   T   T
 -0.8188179405737819 -1.2538346400809040  0.4070898758723263   T   T   T
 -0.3193551386581583 -1.7532592937807576  0.3974988536853312   T   T   T
 -0.7492792668071255 -1.3494005703039069  0.4085636376343815   T   T   T
 -0.2491130785471909 -1.8506329378138844  0.3972159337849048   T   T   T
 -0.6788542968460398 -1.4449034519568258  0.4105660576826549   T   T   T
 -0.1813690396307723 -1.9433623516216589  0.4028885914992886   T   T   T
 -1.1112941749303304 -2.0398491058639485  0.3975881323058765   T   T   T
 -0.6089789226738942 -1.5332044253394466  0.4041138047833317   T   T   T
 -0.9451896264375707 -1.9200479591644966  0.4061109942928992   T   T   T
 -0.4446062774644569 -1.4159537425897004  0.4055224005839743   T   T   T
 -0.8770306258811387 -2.0101042363335231  0.4024662748697437   T   T   T
 -0.3760460453229429 -1.5112586124813805  0.4030106364881895   T   T   T
 -0.8082406665898135 -1.1038934971207823  0.4081681502848395   T   T   T
 -0.3082975662399910 -1.6017910650317313  0.4026812728347041   T   T   T
 -0.7378705943617815 -1.1974380136151990  0.4101351416347429   T   T   T
 -0.2380194621233254 -1.6984372057054695  0.4001029743253031   T   T   T
 -0.6688128023066399 -1.2929159707569007  0.4130412572686343   T   T   T
 -0.1686969401600581 -1.7924765168262924  0.3996415573805486   T   T   T
 -1.0978242061876493 -1.8846566262778128  0.3961019048732107   T   T   T
 -0.5991429813466880 -1.3839449067307865  0.4110865451136164   T   T   T
 -0.8659797396234077 -1.8596998840002992  0.4043089501215407   T   T   T
 -0.3642453558297221 -1.3615484536663112  0.4110478503929927   T   T   T
 -0.7974264177639439 -1.9504420481932732  0.4061923116274317   T   T   T
 -0.2959501892153114 -1.4506225192950646  0.4094699739959679   T   T   T
 -0.7260790009138410 -1.0450766012330650  0.4088445997867722   T   T   T
 -0.2267069070830088 -1.5489497152390059  0.4063706811765448   T   T   T
 -0.6548912054548178 -1.1383235731553030  0.4106374719637552   T   T   T
 -0.1551063857250130 -1.6438544372653554  0.4009675054124068   T   T   T
 -1.0859850174243373 -1.7332394012070280  0.3994201411468596   T   T   T
 -0.5876105443406198 -1.2317561069596374  0.4157568822929113   T   T   T
 -1.0133380686600277 -1.8274771886040451  0.3996740105150434   T   T   T
 -0.5162949049972090 -1.3253467207044227  0.4102489014738850   T   T   T
 -0.7850476732982391 -1.8010653746002072  0.4042101749144205   T   T   T
 -0.2831528003018777 -1.3010494857069101  0.4094334299040982   T   T   T
 -0.7169650610969679 -1.8959404263022390  0.4029510059356223   T   T   T
 -0.2140841753017548 -1.3956372392222733  0.4103691875056018   T   T   T
 -0.6453487095652199 -1.9834411578341999  0.4111045704441367   T   T   T
 -0.1441175748926357 -1.4896573446504411  0.4080566604262176   T   T   T
 -1.0738770601932512 -1.5825706264510782  0.4023036070611419   T   T   T
 -0.5741880627051889 -1.0796945689248687  0.4108464413743150   T   T   T
 -1.0035083365668727 -1.6736057667113373  0.3992845621014667   T   T   T
 -0.5067574976222523 -1.1744984759368369  0.4082289380327710   T   T   T
 -0.9357205021917401 -1.7671572226674259  0.4041149175184149   T   T   T
 -0.4362151307852838 -1.2670512304622088  0.4102141821553735   T   T   T
 -0.7024463819661816 -1.7457442018577709  0.4036997059031461   T   T   T
 -0.2031922330383982 -1.2416198876037448  0.4071040032030468   T   T   T
 -0.6335593311563013 -1.8370342671332713  0.4068081591234595   T   T   T
 -0.1297284111210861 -1.3386229528280922  0.4044296284612361   T   T   T
 -1.0617639334282687 -1.4301027983662318  0.4021721906111704   T   T   T
 -0.5652118523467710 -1.9296926433395853  0.4085303114813692   T   T   T
 -0.9932022034692330 -1.5227935144647176  0.4001532178645056   T   T   T
 -0.4941823670264713 -2.0224625359764494  0.4018715597462076   T   T   T
 -0.9235809590424560 -1.6190029145674203  0.4041759021459872   T   T   T
 -0.4252492354883548 -1.1134600820916052  0.4042924046112810   T   T   T
 -0.8542722504071855 -1.7128119085796831  0.4051970907161632   T   T   T
 -0.3548236359583550 -1.2086252220354923  0.4083425708998637   T   T   T
 -0.6211381344156985 -1.6865206640591830  0.4077183450699002   T   T   T
 -0.1213750369318136 -1.1904030941831860  0.4011157475700475   T   T   T
 -1.0503978962659635 -1.2809956461515311  0.3997116548141489   T   T   T
 -0.5509570109073293 -1.7780541304770927  0.4043723356771134   T   T   T
 -0.9806618982381651 -1.3718199386278984  0.3975936220164417   T   T   T
 -0.4846356974875784 -1.8717519703873817  0.3964593597932660   T   T   T
 -0.9115246264690802 -1.4648545828195030  0.3964478468317516   T   T   T
 -0.4131366082164750 -1.9595771526368881  0.4078965804510299   T   T   T
 -0.8410422124092664 -1.5587837591988818  0.4070350653678919   T   T   T
 -0.3447591304501216 -1.0576580401397400  0.4058190582437998   T   T   T
 -0.7741325827117100 -1.6493033599698952  0.4043299717324371   T   T   T
 -0.2736409856759786 -1.1475443637349190  0.4073892464920024   T   T   T
 -1.0394882701344825 -1.1342636664014829  0.4021799376940609   T   T   T
 -0.5406726915002891 -1.6260235480050296  0.3990582550785282   T   T   T
 -0.9705290151559830 -1.2212847967681868  0.3943070526026263   T   T   T
 -0.4734661044644244 -1.7199310276466875  0.3960754855554079   T   T   T
 -0.8980152428087435 -1.3084532555714772  0.3971930744950640   T   T   T
 -0.4014628829079135 -1.8129202065374348  0.3972519543734475   T   T   T
 -0.8306861358240458 -1.4058677739581402  0.4017782545724080   T   T   T
 -0.3328955837725431 -1.9036708806419960  0.3995217960805498   T   T   T
 -0.7607351113375652 -1.5015794715016197  0.4056691934688398   T   T   T
 -0.2624342561730123 -1.9999610884217522  0.4003645458536882   T   T   T
 -0.6917007810940969 -1.5969178217647455  0.4082539639433274   T   T   T
 -0.1900775781025206 -1.0932944838847036  0.4040463901834833   T   T   T
 -1.0116939186465779 -1.0590358133588120  0.3997406373477220   T   T   T
 -0.5091662936813701 -1.5574254451700902  0.4006982391215563   T   T   T
 -0.9400313593645268 -1.1444006707866128  0.3956381053597716   T   T   T
 -0.4413114294972684 -1.6496424576528128  0.3935026577835758   T   T   T
 -0.8680913697192082 -1.2397131578228078  0.4014973515139296   T   T   T
 -0.3705893534631315 -1.7407344555649749  0.3954858376691022   T   T   T
 -0.7999884754974861 -1.3343048573152791  0.4063684628964593   T   T   T
 -0.2991229098311823 -1.8367556343799729  0.3971337283646412   T   T   T
 -0.9248973950990556 -2.0016116461413822  0.4007665806447381   T   T   T
 -0.4264082898598704 -1.4996331893092043  0.4017790478651854   T   T   T
 -0.8566719564907657 -1.0917624520087408  0.4066395674667251   T   T   T
 -0.3574270855723660 -1.5921258208372431  0.3966194822564539   T   T   T
 -0.7876806378314718 -1.1843249100931961  0.4088154094675877   T   T   T
 -0.2864450380522654 -1.6833247434904191  0.4011243741837808   T   T   T
 -0.7191775483426128 -1.2810989480292396  0.4105834545632699   T   T   T
 -0.2198761444357937 -1.7813225588495887  0.3980188543047442   T   T   T
 -0.6493359954989385 -1.3711997142664012  0.4089732193798123   T   T   T
 -0.1492255247878992 -1.8758672450362313  0.3982522384817845   T   T   T
 -1.0797031472477003 -1.9669853420946646  0.3965938199211879   T   T   T
 -0.5787870923562874 -1.4627358271177364  0.4066151589485633   T   T   T
 -0.9174189533239325 -1.8496738426498338  0.4065474294009491   T   T   T
 -0.4139323086311549 -1.3501808378264781  0.4103923610747317   T   T   T
 -0.8472366169564272 -1.9413283973571991  0.4067718302192664   T   T   T
 -0.3453179052622541 -1.4416431757341372  0.4088200297212263   T   T   T
 -0.7767294073402830 -1.0320703243747122  0.4066198102477264   T   T   T
 -0.2764847865112154 -1.5338417138959843  0.4085187627561833   T   T   T
 -0.7056787913058820 -1.1295282063204179  0.4083603008255560   T   T   T
 -0.2053203418393861 -1.6298212710500046  0.3998057265519575   T   T   T
 -0.6380058277654295 -1.2215526783418780  0.4147379227288766   T   T   T
 -0.1361842858089281 -1.7220206508821945  0.3975518380240511   T   T   T
 -1.0672430744292247 -1.8183713029533712  0.3976239665618893   T   T   T
 -0.5665649699919754 -1.3113981400343246  0.4140145817457970   T   T   T
 -0.9967518169005388 -1.9088156624510553  0.4022762545880121   T   T   T
 -0.4966260551677355 -1.4094772671231741  0.4085943150212590   T   T   T
 -0.8346425802635181 -1.7901453770682010  0.4060424388096739   T   T   T
 -0.3319687786939447 -1.2923961645706585  0.4141900373820767   T   T   T
 -0.7663349383305327 -1.8833782234396166  0.4042369600642780   T   T   T
 -0.2645892219038963 -1.3820532631131084  0.4108291283712602   T   T   T
 -0.6957552169344996 -1.9746121316837137  0.4103942059658520   T   T   T
 -0.1953169082045256 -1.4757701994258041  0.4070204567373558   T   T   T
 -0.6249392614547122 -1.0648815855293754  0.4092789431150827   T   T   T
 -0.1253605520226655 -1.5721740185991091  0.4040317425008249   T   T   T
 -1.0541875816405324 -1.6680525256275938  0.4012795711464635   T   T   T
 -0.5558678411990782 -1.1608184649527935  0.4119206257379207   T   T   T
 -0.9854753963667836 -1.7531366826971755  0.4028641146255139   T   T   T
 -0.4866897589732315 -1.2571342173272049  0.4084378402041220   T   T   T
 -0.7520278753540821 -1.7307406938860386  0.4051140880153069   T   T   T
 -0.2533784462982197 -1.2289120138857177  0.4049126115330859   T   T   T
 -0.6834301144200140 -1.8271683081479828  0.4023653768700872   T   T   T
 -0.1799577130249937 -1.3228367323653432  0.4053597058964928   T   T   T
 -0.6143791054384785 -1.9162032904966919  0.4104405957666145   T   T   T
 -0.1125481961057452 -1.4188632611589092  0.4055393883795196   T   T   T
 -1.0430340232010771 -1.5105723834374853  0.4003730991982783   T   T   T
 -0.5424582510900300 -2.0103179171698780  0.4052244281935842   T   T   T
 -0.9751201079248419 -1.6036356347200076  0.4017640087167720   T   T   T
 -0.4753556706500814 -1.1043887285300453  0.4015933022841455   T   T   T
 -0.9045459148322457 -1.6998143668852268  0.4058761884749938   T   T   T
 -0.4039510836701998 -1.1957191685535309  0.4066790478249594   T   T   T
 -0.6706465907003557 -1.6727592331686267  0.4079522806627934   T   T   T
 -0.1706666992904605 -1.1756777891525350  0.4050265930261968   T   T   T
 -1.0996303186301650 -1.2697631655378534  0.4011522151659921   T   T   T
 -0.6017274271981946 -1.7656728031063627  0.4065366671409972   T   T   T
 -1.0322555083858578 -1.3609274413652701  0.3981476892286012   T   T   T
 -0.5335079784129658 -1.8627580675809783  0.4058583089683230   T   T   T
 -0.9604423248935404 -1.4528609924165241  0.3996802400132822   T   T   T
 -0.4627618242603404 -1.9505107957985888  0.4013106069235844   T   T   T
 -0.8908499008004386 -1.5480666300818842  0.4037416682762198   T   T   T
 -0.3936978454931144 -1.0442880741533953  0.4071088434574713   T   T   T
 -0.8239566932247709 -1.6404692266388254  0.4088249968862119   T   T   T
 -0.3251676010208049 -1.1394426777550768  0.4069186356159555   T   T   T
 -1.0902759493336893 -1.1191348256004772  0.4023529405556177   T   T   T
 -0.5901672578451164 -1.6160220056006607  0.4028877549276269   T   T   T
 -1.0202695386020222 -1.2133253937742710  0.3968871230509382   T   T   T
 -0.5231402511813801 -1.7090485126028736  0.3994892008346606   T   T   T
 -0.9492604113148928 -1.3006629892639303  0.3931728086811684   T   T   T
 -0.4517147149063799 -1.8028756515065349  0.3967431532375003   T   T   T
 -0.8820136682414312 -1.3933277802498654  0.3990815795436667   T   T   T
 -0.3835138284663451 -1.8932784605192801  0.4028186071734904   T   T   T
 -0.8123990738731656 -1.4890285932850547  0.4032628423051560   T   T   T
 -0.3124715073179769 -1.9898588312243999  0.4008731233617063   T   T   T
 -0.7418962935800382 -1.5827602807546548  0.4071544428348421   T   T   T
 -0.2416040183384180 -1.0793702252446193  0.4057215493714169   T   T   T
 -0.7290047461072673 -1.4302722573511906  0.4090140443248569   T   T   T
 -0.2310450351163780 -1.9306428315469824  0.4019187137239043   T   T   T
 -0.6592623427680443 -1.5263687122317391  0.4080064719417036   T   T   T
 -0.1609474207004280 -2.0265524683355189  0.4004897226827493   T   T   T
  0.6645599547569478  1.1129564998357306  0.2514602919220524   T   T   T
  1.1653921348333107  1.6232566014824266  0.2534400145935404   T   T   T
  0.5234343469487147  1.4012293315002329  0.2661168561597219   T   T   T
  1.0237832509787645  0.9110186391329437  0.2641030884441392   T   T   T
  0.4507384489827593  1.0405248062845420  0.2666297404160488   T   T   T
  0.9466173121869212  1.5530846433379077  0.2622495926033735   T   T   T
  0.8058460816149501  0.8358570635499630  0.2559277063985000   T   T   T
  1.3108546338796627  1.3187178155160417  0.2723259221060189   T   T   T
  0.7337786887260996  1.4717769436636650  0.2636338304073064   T   T   T
  1.2334653918821341  0.9789831515878077  0.2624180925151902   T   T   T
  0.5975526088745746  0.7623469504468831  0.2650589820881185   T   T   T
  1.0872837579529777  1.2661513318535167  0.2782676385982379   T   T   T
  0.8731725944868322  1.1910665250330372  0.2622657262798627   T   T   T
  1.3787365277316934  1.6895133162797782  0.2697920839031200   T   T   T
  0.8769766757331068  1.1949945212300315  0.1914356225239235   T   T   T
  1.3788306787445876  1.6909703635268489  0.1929428268832679   T   T   T
  0.6627358630096690  1.1365192453722279  0.1769873201049121   T   T   T
  1.1699042487229439  1.6236133291806958  0.1770804196534028   T   T   T
  0.5222692439451797  1.4098289372835437  0.1929590386385993   T   T   T
  1.0226841725536762  0.9285604172197439  0.1904983526666128   T   T   T
  0.4490918568556445  1.0454575392918735  0.1913674960347714   T   T   T
  0.9462520668268655  1.5573816650886885  0.1865039064169226   T   T   T
  0.8136365404635237  0.8339181344877613  0.1814288091959175   T   T   T
  1.3092635844226765  1.3265385706112829  0.1982782537817994   T   T   T
  0.7319393315102291  1.4849823387925087  0.1924082004286124   T   T   T
  1.2375524338025379  0.9904429243198072  0.1866508831143146   T   T   T
  0.5951926096383486  0.7707575029166206  0.1887683233235964   T   T   T
  1.0839419999340589  1.2698860924140947  0.2015916183863920   T   T   T
  0.6447046723927925  0.9952223078321608  0.2676540871703170   T   T   T
  1.1490990974861459  1.5064016895966024  0.2911515034715336   T   T   T
  0.5120691150913654  1.2888014773655114  0.2890828118370326   T   T   T
  1.0027585458136814  0.7940892385825722  0.2797843934639107   T   T   T
  0.8547990424165398  1.0690766807102354  0.2826530692384920   T   T   T
  1.3587186382772349  1.5756940483257627  0.2906864277913402   T   T   T
  0.4339368290136828  0.9203907180524863  0.2892008377589821   T   T   T
  0.9249714032164195  1.4351073473697400  0.2865406112529656   T   T   T
  0.7915741110858965  0.7166937309861883  0.2776073697357371   T   T   T
  1.2910088839441731  1.2095309437884545  0.2921905334170838   T   T   T
  0.7159684328916175  1.3567093018256295  0.2760541881696431   T   T   T
  1.2107735619580335  0.8585971330718556  0.2753140479263090   T   T   T
  0.5739564972282440  1.6454292109528623  0.2856918055346111   T   T   T
  1.0724901519059880  1.1436887040410266  0.2958745277759131   T   T   T
  0.6086955962911497  1.1975937339997254  0.2778211725329476   T   T   T
  1.1177330511184322  0.7036283620741083  0.2765635073712220   T   T   T
  0.4742135014802211  1.4889764959708918  0.2877983247314814   T   T   T
  0.9725357992605902  0.9946820827001516  0.2879690726438930   T   T   T
  0.4046254114435016  1.1236742548810255  0.2918093700574060   T   T   T
  0.8955410556911099  1.6393294483588301  0.2833843806793506   T   T   T
  0.7544647316967381  0.9156392142226955  0.2757267169505569   T   T   T
  1.2630268462946921  1.4162013514624270  0.2873479675826867   T   T   T
  0.8177623180425967  1.2705844691423163  0.2831679280288135   T   T   T
  1.3236589754681836  0.7679395198169799  0.2870547237273417   T   T   T
  0.6873639423720973  1.5575709448232313  0.2884208280695902   T   T   T
  1.1859742738337862  1.0584398996294737  0.2902501320242545   T   T   T
  0.5462198272532256  0.8511128356997563  0.2861711384002892   T   T   T
  1.0420980569312284  1.3627948993414258  0.2950974155357360   T   T   T
  0.7264577910039728  1.1536092750963889  0.2765304958558710   T   T   T
  1.2334051981232941  1.6402862093242538  0.2820704203617999   T   T   T
  0.5887220390079136  1.4371544199146955  0.2909825558293106   T   T   T
  1.0890855562250339  0.9263124619624389  0.2885215767187781   T   T   T
  0.5157481625427209  1.0812302033598957  0.2881022823782408   T   T   T
  1.0189712512431239  1.5867458820497047  0.2760159318960197   T   T   T
  0.8721278255178417  0.8643524409286917  0.2815243960924573   T   T   T
  1.3816621859768079  1.3378704161342985  0.2901177321635409   T   T   T
  0.7997353786018137  1.5025636185161322  0.2894823514170231   T   T   T
  1.2979027376214856  0.9994448419119607  0.2893398896787740   T   T   T
  0.6631620222211139  0.7796830831515810  0.2897765198353033   T   T   T
  1.1586380533553717  1.2911434231828813  0.2905280404974500   T   T   T
  0.4509331684008704  0.7023729085350358  0.2863919162041179   T   T   T
  0.9384724024951377  1.2323044682763229  0.2846826718336640   T   T   T
  0.7125032147532029  1.0527873514812729  0.1512668108559589   T   T   T
  1.2204623617090709  1.5339053393886621  0.1628428179147884   T   T   T
  0.5721443071542847  1.3367859154678796  0.1678742614217776   T   T   T
  1.0728587200725614  0.8417003748450615  0.1667316262122123   T   T   T
  0.4274137872119942  1.6017074876231721  0.1869695603651055   T   T   T
  0.9273249254749917  1.1107588914206648  0.1704995962676180   T   T   T
  0.5015308864756840  0.9645548133715209  0.1789215126027722   T   T   T
  0.9966541585485191  1.4724631086996018  0.1703649876283031   T   T   T
  0.8587444846510004  0.7430612803369908  0.1648396273636436   T   T   T
  1.3543890872151225  1.2432628413699456  0.1720482391036411   T   T   T
  0.7820836419570606  1.4132568410072779  0.1621510865260992   T   T   T
  1.2812876449516137  0.9037195215806977  0.1656220011424311   T   T   T
  0.6417126637258210  1.6792862452009809  0.1683152278820832   T   T   T
  1.1332820565520125  1.1936878368746753  0.1807213301220510   T   T   T
  0.6797126907167150  1.2559118204650357  0.1696795402022399   T   T   T
  1.1880018471774580  0.7452910599489857  0.1647930477700254   T   T   T
  0.5345733731906244  1.5302709207034844  0.1858749279735712   T   T   T
  1.0449569363990252  1.0472253390435655  0.1795917518876291   T   T   T
  0.4658668352943635  1.1685539431274332  0.1823200328063948   T   T   T
  0.9669288011381189  1.6713377461423526  0.1695250114437691   T   T   T
  0.8297547414674510  0.9573829005406453  0.1666325236797528   T   T   T
  1.3302464984037417  1.4416122161992184  0.1845011382952911   T   T   T
  0.4055730864733854  0.8114201559741487  0.1758689453603947   T   T   T
  0.9002017643393826  1.3163257562069097  0.1737074754869112   T   T   T
  0.7435837417286117  1.6080540743832539  0.1875575551337046   T   T   T
  1.2607828258341858  1.1028283139311787  0.1707999723494789   T   T   T
  0.6148145169317315  0.8819346801695355  0.1674094550813366   T   T   T
  1.1003034884833738  1.3908962176127324  0.1859968634456881   T   T   T
  0.8073562635904525  1.1616015999924305  0.1735396418682875   T   T   T
  1.3118539203440547  1.6797390010558528  0.1683297353075398   T   T   T
  0.5950084722018277  1.1069090169030427  0.1571524177940187   T   T   T
  1.1018783923057978  1.6144418966013514  0.1574190088418131   T   T   T
  0.4574534526203234  1.3766415242764227  0.1750399574897729   T   T   T
  0.9575728848516863  0.9009348007677199  0.1713363764654911   T   T   T
  0.3807784770085824  1.0192368986477751  0.1705267621097435   T   T   T
  0.8822362120015589  1.5425345122892697  0.1619199544386970   T   T   T
  0.7420317490664134  0.8014195049870709  0.1630229403270452   T   T   T
  1.2416435648475412  1.3127477379043038  0.1754215540874757   T   T   T
  0.6664462165117725  1.4536762738873719  0.1717156987494010   T   T   T
  1.1658811194219074  0.9749262000738166  0.1689074573098024   T   T   T
  0.5298786650957736  0.7369781668908673  0.1738667019733390   T   T   T
  1.0180211268740234  1.2491259882472896  0.1791958239986361   T   T   T
  0.6359911212934167  1.3327268471822580  0.2762949337708916   T   T   T
  1.1305939451193336  0.8321364932445509  0.2540597839061554   T   T   T
  0.5694713120634326  0.9890190457689522  0.2715745799901157   T   T   T
  1.0643975923515177  1.4828310576575778  0.2673286747109784   T   T   T
  0.4313431591012254  1.2480767002785160  0.2641463710306099   T   T   T
  0.9242271680380867  0.7674920776815534  0.2753121660558473   T   T   T
  0.7776056090864748  1.0543348003810971  0.2643978121569219   T   T   T
  1.2828420717658258  1.5356707124927229  0.2688353051967615   T   T   T
  0.8503181899282223  1.3941902499776875  0.2894247357628316   T   T   T
  1.3522706623839131  0.8962153379011580  0.2784442051388654   T   T   T
  0.7091420649341279  1.6800081065351351  0.2665951499865294   T   T   T
  1.2129439681158993  1.1801245284377868  0.2781359004383238   T   T   T
  0.5043758642225732  1.6165713072876271  0.2518531151967011   T   T   T
  0.9949241323171585  1.1183981429074941  0.2802455021426527   T   T   T
  0.7595335674886349  1.2762362022728515  0.2119205136260194   T   T   T
  1.2593751664748070  0.7662824619149787  0.2199810294891386   T   T   T
  0.5452193135832341  1.2047251810430364  0.2110693135219688   T   T   T
  1.0447696642982063  0.7165972815391597  0.2089002737489278   T   T   T
  0.4041675323049027  1.4606514329123006  0.2309087793716161   T   T   T
  0.9049605455131531  0.9846576476683496  0.2256258127511268   T   T   T
  0.4772565280609287  0.8326020834002724  0.2281669360004174   T   T   T
  0.9691901964091043  1.3529689113747645  0.2256138602274128   T   T   T
  0.8320214058646211  1.6120860677296762  0.2236382014025221   T   T   T
  1.3359217663333900  1.1100787849327505  0.2249207416070450   T   T   T
  0.7047157954629509  0.9202878711763280  0.2051830310621479   T   T   T
  1.1805085731915632  1.3934777286871374  0.2264590037274710   T   T   T
  0.6150701531603411  1.5535821416029785  0.2188451328739226   T   T   T
  1.1189233407329284  1.0617364640478673  0.2250877069319860   T   T   T
 
 -0.37121567E-04 -0.27499241E-02  0.22669714E-02
 -0.87675100E-02 -0.98404436E-02  0.96185296E-03
  0.32515071E-02  0.98670737E-02  0.38143904E-02
  0.12148460E-01  0.46266940E-02  0.46547231E-03
  0.65620231E-02 -0.54327998E-02 -0.72402152E-02
 -0.37747512E-02  0.15690139E-02  0.63080872E-02
 -0.34190124E-02  0.49448628E-02  0.22366619E-02
  0.10566614E-02 -0.21380898E-02 -0.58980295E-02
 -0.14066132E-02  0.23764574E-02  0.43770056E-02
 -0.59071232E-02 -0.27763362E-02 -0.27481564E-02
  0.11490060E-01 -0.51686170E-02 -0.87568029E-02
  0.75016180E-02 -0.34904842E-02  0.37510895E-03
  0.26533007E-02 -0.89542591E-02 -0.18927509E-02
  0.14294385E-02 -0.19079651E-02  0.26886102E-02
 -0.15439292E-02 -0.12762130E-02  0.37711276E-02
 -0.74054004E-02  0.56487235E-02  0.73292114E-02
  0.50420962E-02 -0.15455343E-02 -0.19016919E-02
  0.34738102E-02 -0.70478572E-02 -0.36883590E-02
 -0.31154657E-02 -0.25168209E-02 -0.86693472E-02
  0.41783320E-02 -0.71760498E-02 -0.19899133E-02
 -0.15359878E-01 -0.58373690E-02  0.84894454E-02
  0.77655870E-04  0.12779259E-01 -0.62846988E-03
 -0.42316647E-02 -0.32996804E-02  0.33289600E-03
 -0.67155579E-02 -0.48640652E-03 -0.49159363E-02
 -0.46126779E-02 -0.92769905E-02 -0.20967632E-02
  0.44552804E-02  0.85451660E-02  0.21816732E-02
  0.32037596E-02 -0.82042784E-02 -0.12524083E-02
  0.12343801E-02  0.13473447E-02  0.59498996E-02
 -0.28869574E-02 -0.45362580E-02  0.35540344E-03
 -0.12968622E-02 -0.78395083E-02 -0.38184969E-02
  0.18894826E-03  0.14222256E-02  0.19070088E-02
  0.31317734E-02 -0.20231542E-02  0.44384794E-02
 -0.65724853E-02 -0.45324298E-03  0.66875900E-03
 -0.44042930E-02  0.31119172E-02 -0.50161807E-02
 -0.66369463E-02 -0.71611351E-02 -0.74272842E-02
 -0.62329043E-02  0.39004639E-02  0.39092356E-02
 -0.31325028E-02  0.63205267E-02 -0.80156092E-02
  0.10147762E-01  0.13072095E-02  0.65152003E-03
 -0.43555643E-02  0.49735631E-02  0.32794377E-02
  0.14471716E-02  0.11047489E-03 -0.35781680E-02
  0.66765175E-02  0.23405071E-03 -0.33292697E-02
 -0.10174961E-02  0.25994371E-02 -0.45488619E-02
  0.13131649E-03  0.35861378E-02  0.29416836E-03
 -0.32201138E-02 -0.22827337E-02  0.64198197E-02
  0.14609840E-02 -0.64576996E-02  0.51318645E-02
 -0.25337196E-02  0.39102773E-02 -0.55234814E-02
 -0.44505068E-03  0.71127001E-03 -0.64483975E-04
 -0.22680116E-02 -0.36716928E-02 -0.46833991E-02
  0.64677249E-02 -0.19568385E-02  0.48880992E-02
 -0.50203277E-02 -0.39876448E-02 -0.75792124E-02
  0.13934319E-02  0.49943124E-02 -0.84913433E-02
 -0.73567180E-03  0.88770131E-02  0.73721118E-03
 -0.14118815E-02  0.62749709E-02 -0.17760798E-02
 -0.14821563E-02 -0.10743271E-01 -0.11025075E-02
 -0.68395356E-03 -0.15174988E-01  0.40199339E-03
  0.64424541E-02 -0.50600147E-02 -0.59441886E-03
  0.28886891E-02 -0.95260419E-04  0.18848776E-01
 -0.88717635E-03 -0.62180683E-03  0.55581153E-02
  0.61607474E-02  0.66077263E-02 -0.47001913E-02
 -0.57674074E-02 -0.21031237E-02 -0.59708182E-03
 -0.10505736E-01  0.43475934E-02  0.56585607E-03
 -0.24773620E-02 -0.80096995E-02  0.77517806E-02
  0.29465485E-02 -0.61535891E-02  0.33567335E-02
 -0.55679892E-02  0.73960359E-02 -0.22272875E-02
  0.72191420E-02 -0.41029519E-02  0.39871576E-03
 -0.87947021E-02 -0.48649540E-02 -0.35859422E-02
 -0.19690272E-02  0.54678146E-02  0.72956599E-02
  0.64875038E-02  0.10170801E-01  0.64408538E-02
 -0.53362122E-02 -0.45017549E-04 -0.11626240E-01
 -0.12152375E-02 -0.11491347E-02 -0.38730195E-02
  0.39544590E-02 -0.11271845E-02 -0.94164942E-03
  0.20713575E-02  0.15602833E-02 -0.31831469E-02
  0.95718144E-02 -0.28082787E-02  0.91595707E-02
  0.84086275E-02 -0.79305744E-02 -0.27665023E-02
  0.98402676E-03  0.11819789E-02 -0.26862073E-02
  0.40435620E-02 -0.55254513E-02 -0.66119079E-03
  0.11778876E-02  0.18259373E-02 -0.31629028E-02
 -0.27047453E-02 -0.42491517E-02 -0.90080929E-03
 -0.58005879E-02 -0.45883747E-02  0.90715418E-02
  0.38532335E-02 -0.61922955E-03  0.60749506E-02
  0.90247637E-03 -0.66889091E-02 -0.16774795E-02
 -0.40779386E-03 -0.33156281E-02  0.42559540E-02
 -0.23232753E-02 -0.78547363E-03  0.12872372E-01
 -0.16556027E-02 -0.19977863E-02 -0.45091372E-02
  0.78095567E-02  0.32713598E-02 -0.69160105E-02
  0.52415349E-02  0.99693854E-03 -0.14209443E-01
  0.47611111E-02 -0.52744502E-02  0.66483409E-02
 -0.81548626E-02  0.51158074E-02  0.53105963E-02
 -0.55408968E-02 -0.46750286E-02  0.14585348E-02
 -0.11078360E-01 -0.56458708E-02  0.10699404E-02
 -0.92367463E-02  0.81751608E-02 -0.16762290E-02
  0.14263777E-02  0.27327712E-02  0.39749016E-02
 -0.72923097E-02  0.53208038E-02  0.11065417E-02
 -0.83423969E-03  0.75098014E-02  0.13651819E-03
  0.20392489E-02 -0.70362444E-02 -0.24137397E-02
  0.62712806E-02 -0.38303810E-02  0.36042870E-02
 -0.58823546E-02 -0.86165067E-02  0.15853626E-02
  0.37875065E-02 -0.16976578E-02 -0.19209727E-02
  0.13809232E-02  0.19277459E-02 -0.35407050E-02
 -0.21227250E-02 -0.79701961E-02  0.68390760E-02
  0.28425014E-02 -0.62198856E-02  0.79427329E-02
  0.70037336E-02 -0.69409057E-02 -0.78033464E-02
 -0.82309278E-02 -0.54785167E-02 -0.28270177E-03
 -0.13618810E-02  0.12390274E-01 -0.22024833E-02
 -0.86867027E-02  0.33378602E-02 -0.16007774E-03
 -0.39552822E-02 -0.20357759E-02  0.22138220E-02
  0.12742407E-02 -0.63019253E-02 -0.25415312E-03
 -0.27638135E-02  0.28661627E-02 -0.20123772E-02
 -0.44140926E-02  0.32963159E-02 -0.69515292E-02
  0.28065461E-03  0.77779602E-02 -0.62821531E-02
  0.98673771E-03 -0.35271473E-02 -0.31610169E-02
  0.82783548E-03 -0.18497765E-02 -0.83550236E-03
  0.30677212E-02  0.16668891E-02  0.16487100E-03
  0.12151987E-02 -0.50745117E-02  0.19574326E-02
  0.62741582E-03 -0.41846381E-02 -0.63483425E-02
 -0.67877072E-02 -0.17523460E-02  0.28664409E-02
 -0.58170519E-02  0.10866238E-01  0.52456824E-02
  0.48964558E-02  0.25942763E-02 -0.66676598E-03
  0.24028225E-02  0.45123068E-02  0.92429083E-02
  0.54665542E-02 -0.59975234E-02 -0.10335622E-02
  0.59428628E-02 -0.15370824E-02 -0.38891895E-02
  0.34104578E-02 -0.64615009E-02  0.30765664E-02
  0.98074103E-02 -0.80815218E-02  0.36537227E-02
  0.22670855E-03  0.63809362E-03  0.28470793E-02
  0.33007626E-02  0.43566191E-03 -0.13936875E-02
  0.28529750E-02 -0.56276863E-02  0.38502473E-02
  0.87379750E-02  0.87919139E-03 -0.42972785E-02
 -0.94833025E-04 -0.35873648E-02 -0.31376765E-02
 -0.70819580E-02 -0.41418908E-02 -0.11341862E-02
  0.35284866E-02 -0.99024538E-03  0.49255966E-02
  0.20801905E-02 -0.42920085E-02  0.41747269E-02
  0.11312878E-01  0.12943392E-01  0.82024345E-02
  0.63042334E-02 -0.11131226E-02  0.50468602E-03
  0.27386442E-02  0.38512011E-03  0.49838743E-02
 -0.24983719E-02  0.53583286E-02 -0.44573979E-02
  0.35370481E-02 -0.24572465E-02  0.11223279E-01
 -0.14901907E-01  0.36464395E-02 -0.37278722E-02
 -0.18780231E-02  0.44288304E-02  0.40608840E-02
 -0.15289171E-02  0.30760024E-02 -0.50343937E-02
  0.20370136E-02 -0.25727004E-03 -0.47244795E-02