largec3                                 
   1.00000000000000     
    28.0032999999999994    0.0000000000000000    0.0000000000000000
     0.0000000000000000   16.1677000000000000    0.0000000000000000
     0.0000000000000000    0.0000000000000000   30.0000000000000000
   C    P    S    Cu   In
   172    28    84    14    14
Selective dynamics
Direct
 -2.5725236066419628 -2.1512968063710902  0.4069790365240719   T   T   T
 -2.0723542231885879 -1.6524538903261290  0.3987798065054620   T   T   T
 -2.4992569222339678 -1.2445932071067953  0.4068648746636996   T   T   T
 -2.0012806864594204 -1.7465148698601514  0.4003047606112607   T   T   T
 -2.4310938127748232 -1.3398175543315038  0.3936635806548164   T   T   T
 -1.9323876787153704 -1.8345774939833666  0.4121717001865691   T   T   T
 -2.3600197162702390 -1.4298570132191961  0.3922544765297566   T   T   T
 -1.8625458549675546 -1.9262553353657375  0.4068806777452167   T   T   T
 -2.2894610591802618 -1.5206544257327392  0.3933812900254352   T   T   T
 -1.7921527014161338 -2.0193426816024873  0.4064956056132957   T   T   T
 -2.2210376793515816 -1.6165025829120783  0.3929061321440981   T   T   T
 -1.7240733799173991 -2.1135953876604798  0.4040924154164172   T   T   T
 -2.1500736138793872 -1.7110757295638719  0.3969977924110186   T   T   T
 -1.6522722675958035 -2.2074896630033578  0.4064620531156794   T   T   T
 -2.4880792463078070 -2.0946844204566171  0.3992278739609132   T   T   T
 -1.9887741086724686 -1.5958701383743228  0.4032632776610596   T   T   T
 -2.4188084763773028 -2.1875907377714738  0.4015869803484710   T   T   T
 -1.9183247638619099 -1.6844508661984561  0.4048152602260726   T   T   T
 -2.3495460612241210 -1.2799292414860002  0.3998315621497742   T   T   T
 -1.8512351141191372 -1.7742141049721913  0.4145476697251914   T   T   T
 -2.2786907614764145 -1.3694129355124678  0.3943403201718124   T   T   T
 -1.7795744921519290 -1.8699741721228957  0.4079430140864662   T   T   T
 -2.2100948637266895 -1.4623047076214979  0.3956252720000897   T   T   T
 -1.7118671035726665 -1.9636204121170822  0.4087916112785468   T   T   T
 -2.6395650106011832 -2.0593717128337445  0.4022457129773022   T   T   T
 -2.1408327045008910 -1.5569293695846986  0.3946340887003667   T   T   T
 -2.4097177890562498 -2.0349056700906356  0.3990088236994300   T   T   T
 -1.9080178620087229 -1.5319565256986447  0.4059664142310954   T   T   T
 -2.3401163784422674 -2.1252932683477805  0.3998498247747242   T   T   T
 -1.8400688407723818 -1.6262692074255543  0.4079913319449816   T   T   T
 -2.2682041086014335 -1.2206559850798531  0.3958126400177664   T   T   T
 -1.7699850548242293 -1.7185363832306606  0.4037953589504794   T   T   T
 -2.1959283510021299 -1.3097606003161042  0.4016018073023053   T   T   T
 -1.6977431633699513 -1.8123741474548829  0.4084047903374805   T   T   T
 -2.6282585032937122 -1.9066630953263906  0.4060801080980135   T   T   T
 -2.1305652195600757 -1.4047209419021887  0.4034176169237377   T   T   T
 -2.5587471548886471 -2.0018674616306500  0.4001045285068551   T   T   T
 -2.0582548542021470 -1.4993904230700161  0.3969710521033929   T   T   T
 -2.3267006023326768 -1.9746528810765649  0.3978938679576087   T   T   T
 -1.8264919163596256 -1.4782654234120889  0.4095266550319399   T   T   T
 -2.2576055078565354 -2.0691341194666708  0.4013179543189305   T   T   T
 -1.7554977686067377 -1.5678578349164134  0.4008016676769528   T   T   T
 -2.1885949170277503 -2.1619484887404141  0.3983612659115577   T   T   T
 -1.6860230744431515 -1.6634018314244292  0.4013814548657336   T   T   T
 -2.6143373156489744 -1.7531505906561982  0.4075283091917909   T   T   T
 -2.1165660640295014 -1.2532679927011161  0.4051135443460319   T   T   T
 -2.5472446111864913 -1.8511606990821903  0.4021537942217974   T   T   T
 -2.0461652371818051 -1.3475620507289008  0.4022826416279131   T   T   T
 -2.4782564662005377 -1.9424465803621478  0.4017250505338499   T   T   T
 -1.9758944529114044 -1.4416858974096491  0.3988711781786043   T   T   T
 -2.2449518317055737 -1.9175448096657928  0.3941250449798404   T   T   T
 -1.7452457691444847 -1.4156167496407568  0.4064945931488824   T   T   T
 -2.1737768876361661 -2.0132479002804753  0.3965888607599715   T   T   T
 -1.6735284148885616 -1.5113993048366317  0.4006314492666498   T   T   T
 -2.6036363287940323 -1.6016829309307834  0.4014967204454561   T   T   T
 -2.1072626741408933 -2.1016702547037522  0.4035045131071537   T   T   T
 -2.5331763510402356 -1.6987646957302069  0.4014711057224185   T   T   T
 -2.0369949352005277 -2.1959029202977782  0.4073219280116192   T   T   T
 -2.4656524966581572 -1.7939793364725081  0.4040830518372833   T   T   T
 -1.9642830687663351 -1.2891502482989343  0.4028172726336317   T   T   T
 -2.3946477783967901 -1.8855703677407156  0.4003548728219658   T   T   T
 -1.8963165212034314 -1.3823312193523372  0.4043593280762253   T   T   T
 -2.1644540756787283 -1.8577512662220941  0.3970548239310975   T   T   T
 -1.6641421534645535 -1.3569777742291675  0.4049924822339694   T   T   T
 -2.5934245865708303 -1.4507532388194531  0.4022686197131633   T   T   T
 -2.0947475575860595 -1.9515896594159421  0.4034023099828650   T   T   T
 -2.5235546031751532 -1.5490135060577790  0.3988201597126666   T   T   T
 -2.0256570401926708 -2.0464158644750765  0.4077840053613149   T   T   T
 -2.4521542315902018 -1.6387271262902128  0.3988389012621271   T   T   T
 -1.9549823242275999 -2.1394794767602408  0.4060421265038842   T   T   T
 -2.3845313536485584 -1.7336279076627441  0.4000890116102913   T   T   T
 -1.8849513600606369 -1.2306984248747945  0.4073525941168699   T   T   T
 -2.3147020441671122 -1.8235461007187044  0.3992472027482177   T   T   T
 -1.8180139420661825 -1.3276012677668023  0.4051760912273027   T   T   T
 -2.5819880558581030 -1.2987693839658760  0.4026187461034783   T   T   T
 -2.0812217791059817 -1.8009618953440105  0.3983396431467738   T   T   T
 -2.5116506016065672 -1.3936342310365761  0.4003055724091558   T   T   T
 -2.0133594110245459 -1.8994467236093859  0.4049564139004526   T   T   T
 -2.4408939637820750 -1.4895657464214882  0.3914725962971298   T   T   T
 -1.9436984038785790 -1.9870704265289103  0.4084254448376401   T   T   T
 -2.3711016013228243 -1.5791632225745256  0.3933501584259406   T   T   T
 -1.8763871571547666 -2.0787176457738550  0.4086087695605774   T   T   T
 -2.3047882566904385 -1.6692775358710072  0.4013811674015365   T   T   T
 -1.8049971572616210 -2.1747588253028689  0.4060768683240741   T   T   T
 -2.2336193487451470 -1.7625133227409691  0.3961342927730267   T   T   T
 -1.7320230610478307 -1.2663986083914143  0.4054106697068356   T   T   T
 -2.5505769571607888 -1.2293662547861275  0.4077897548208589   T   T   T
 -2.0510325629507844 -1.7337811931886800  0.4010230478533889   T   T   T
 -2.4819076535074882 -1.3246042334104879  0.4007361880372622   T   T   T
 -1.9819548566074865 -1.8278866286628954  0.4088340666386054   T   T   T
 -2.4099301345711730 -1.4215339519882260  0.3902691220644964   T   T   T
 -1.9113571152641695 -1.9147661006177663  0.4090346561476402   T   T   T
 -2.3401058947058404 -1.5092815652772229  0.3921823011672775   T   T   T
 -1.8437890597988122 -2.0086450337043908  0.4075788528359114   T   T   T
 -2.4682661584429311 -2.1730550670790008  0.4000242240888477   T   T   T
 -1.9686958524212173 -1.6768321152582002  0.4029738832338857   T   T   T
 -2.4010949685103813 -1.2670945505571487  0.3964095565387877   T   T   T
 -1.9010427954643012 -1.7663702627146056  0.4078109505223506   T   T   T
 -2.3293579984840918 -1.3598506079021822  0.3931237907594050   T   T   T
 -1.8305009157113541 -1.8581977190590488  0.4114354755229441   T   T   T
 -2.2593368620491709 -1.4471863983490834  0.3922265558873498   T   T   T
 -1.7631327581182574 -1.9503091738406684  0.4051451612424934   T   T   T
 -2.1914962459408636 -1.5456585646941350  0.3978730758061128   T   T   T
 -1.6915257590443593 -2.0464442166334784  0.4031709260758230   T   T   T
 -2.6216939628116376 -2.1405038430705954  0.4063504892931987   T   T   T
 -2.1206598730178503 -1.6404957019170980  0.3962528660469229   T   T   T
 -2.4582517985803345 -2.0245311161582644  0.4004156125570083   T   T   T
 -1.9578297848723851 -1.5260457145889028  0.4009343087217350   T   T   T
 -2.3888698713817313 -2.1146839220098474  0.3957827810163813   T   T   T
 -1.8873683604894425 -1.6171718367889951  0.4087978434520403   T   T   T
 -2.3195815946589899 -2.2092854078016715  0.3978532300241505   T   T   T
 -1.8196040197795760 -1.7049001304867983  0.4115513662131680   T   T   T
 -2.2483630365179539 -1.2981499843026618  0.3961511440875577   T   T   T
 -1.7486597361261755 -1.8010435223320282  0.4105929905799000   T   T   T
 -2.1794042292827873 -1.3918830041176784  0.3979546795440056   T   T   T
 -1.6789531050446791 -1.8960728057425253  0.4067618617216067   T   T   T
 -2.6090455032990696 -1.9906824579429403  0.4024708232362995   T   T   T
 -2.1097380313831855 -1.4861571805938336  0.3976681354908310   T   T   T
 -2.5383725470069085 -2.0842534876454129  0.4026201308032249   T   T   T
 -2.0396687442477122 -1.5830758919260093  0.3957088003062089   T   T   T
 -2.3773682294709699 -1.9647857435599150  0.3986731882011623   T   T   T
 -1.8768341720522617 -1.4647683361300541  0.4070186146100020   T   T   T
 -2.3079250423263571 -2.0562983400064505  0.4001344846956484   T   T   T
 -1.8049812020680440 -1.5581172790956719  0.4036299191532106   T   T   T
 -2.2390653607597319 -2.1496862194538835  0.3968397164223901   T   T   T
 -1.7361935476174855 -1.6498571012960543  0.4027868619301729   T   T   T
 -2.1674723463328331 -1.2408156722472150  0.4036181454565439   T   T   T
 -1.6665590561931662 -1.7422256615169744  0.4063651957522748   T   T   T
 -2.5965420076504726 -1.8381694759978855  0.4061543969733162   T   T   T
 -2.0973484649251173 -1.3349312393655901  0.4079292363380774   T   T   T
 -2.5274323942980401 -1.9331872201012987  0.4015305914462202   T   T   T
 -2.0277656018456502 -1.4335246073008971  0.4009583037826834   T   T   T
 -2.2964784476403897 -1.9081484900701675  0.3976104294630228   T   T   T
 -1.7971008357582414 -1.4089171146034565  0.4075627815620547   T   T   T
 -2.2277919079778350 -2.0003899209340492  0.3978955622437783   T   T   T
 -1.7241110787619365 -1.4984922500011031  0.4011720377569277   T   T   T
 -2.1578593462827853 -2.0926295865289983  0.3995271841495633   T   T   T
 -1.6552574661964334 -1.5910195770424680  0.3992452106367015   T   T   T
 -2.5835356920326951 -1.6842709759718906  0.4041857139290279   T   T   T
 -2.0860504432986033 -2.1823667062726408  0.4030140931028702   T   T   T
 -2.5172921778900146 -1.7786878749745245  0.4037349798885375   T   T   T
 -2.0161218120041111 -1.2756708544138822  0.4019195218019219   T   T   T
 -2.4467460162935661 -1.8739768591174271  0.3984483957135665   T   T   T
 -1.9477385073586058 -1.3724078669122175  0.4018887663868098   T   T   T
 -2.2143209439201414 -1.8447918886536212  0.3952851271529988   T   T   T
 -1.7141467035792479 -1.3494894312112251  0.4033494858294605   T   T   T
 -2.6443377418508511 -1.4380903746806133  0.4024659637931059   T   T   T
 -2.1441084844052045 -1.9391049243084937  0.3985317333511001   T   T   T
 -2.5742692423859332 -1.5300070276046505  0.4000134722898814   T   T   T
 -2.0782935598430412 -2.0320607893834639  0.4055549975131706   T   T   T
 -2.5026352026549112 -1.6310951818781672  0.3988595567092663   T   T   T
 -2.0044304815337473 -2.1286961386356826  0.4073166919770067   T   T   T
 -2.4333956059777995 -1.7230923192013115  0.4023051606700066   T   T   T
 -1.9349288407960326 -1.2167278130118311  0.4083020628004632   T   T   T
 -2.3656607461491808 -1.8122395913729110  0.3969502031429722   T   T   T
 -1.8679327026416253 -1.3119822721976779  0.4074790827315897   T   T   T
 -2.6320672593287839 -1.2886335339743311  0.4037855055962596   T   T   T
 -2.1316724264100970 -1.7918016387784659  0.3964434647441035   T   T   T
 -2.5618006610584816 -1.3799113600978534  0.4037620678125623   T   T   T
 -2.0632925779327111 -1.8815985467997902  0.4027527596814769   T   T   T
 -2.4923504274647788 -1.4776314565517368  0.3956772460224529   T   T   T
 -1.9952493047628215 -1.9780470086981974  0.4111940281264165   T   T   T
 -2.4218801611826937 -1.5731383296972263  0.3925873533636406   T   T   T
 -1.9250902624208324 -2.0661089416396754  0.4068044242195931   T   T   T
 -2.3549340609689580 -1.6611380975040093  0.3999973043521950   T   T   T
 -1.8543393778758104 -2.1627472786672861  0.4091263869735119   T   T   T
 -2.2846560172784289 -1.7488777899009442  0.3965843954224407   T   T   T
 -1.7851236319581452 -1.2575999434307434  0.4061942852115696   T   T   T
 -2.2698518404877790 -1.6013880141727181  0.4011118944378498   T   T   T
 -1.7747350210486073 -2.1019300164107459  0.4022079970376802   T   T   T
 -2.2011659086748514 -1.6966184156546962  0.3973266911459832   T   T   T
 -1.7026989895732068 -2.1975494575105294  0.4015756266229577   T   T   T
  1.1947639242969148  1.1932743579809504  0.2697984522682563   T   T   T
  1.6857002359541704  1.6813697797339795  0.2476985900907219   T   T   T
  1.0420308311335895  1.4685985624575555  0.2556394225010000   T   T   T
  1.5497116719290565  0.9767601141866133  0.2555225079183561   T   T   T
  0.9729783787059014  1.0981814833734527  0.2634722253438929   T   T   T
  1.4788300004378612  1.6133924017811172  0.2661957504552752   T   T   T
  1.3371963829570293  0.8912661741730477  0.2598669304434386   T   T   T
  1.8255485373589819  1.3955019633112493  0.2528492863609978   T   T   T
  1.2656175095287940  1.5376725405140417  0.2644419762603945   T   T   T
  1.7589402905353368  1.0297796334334515  0.2579372119677709   T   T   T
  1.1197229745863135  0.8128978255065420  0.2530675401322156   T   T   T
  1.6178949080660416  1.3283247974206593  0.2553388251768455   T   T   T
  1.4038830239506492  1.2549821435611477  0.2654710487226878   T   T   T
  1.9071710874341117  1.7497039419120013  0.2595598439466912   T   T   T
  0.9049825129670349  1.7574424076232280  0.1815919889842045   T   T   T
  1.4068966826836908  1.2462899427355165  0.1928090844186063   T   T   T
  1.1903753975550444  1.1890431408911986  0.1948042143671888   T   T   T
  1.6863365059346163  1.6960819353738783  0.1716980656062968   T   T   T
  1.0443680385737413  1.4670315361360391  0.1787883167968993   T   T   T
  1.5527491092562780  0.9706810692516391  0.1785501200788120   T   T   T
  0.9735043767217836  1.1144200275745215  0.1890064545399421   T   T   T
  1.4760990790809667  1.6112247447136696  0.1929746262026159   T   T   T
  1.3332600098041945  0.8923365994527765  0.1832080259203361   T   T   T
  1.8285513287444839  1.3946743646048931  0.1737148477603999   T   T   T
  1.2678216133325033  1.5292250122453273  0.1893368758943378   T   T   T
  1.7647229497076473  1.0468231415088065  0.1802321504642565   T   T   T
  1.1215388424128079  0.8185123636462147  0.1807496202528688   T   T   T
  1.6172016080113065  1.3223277866987437  0.1776281070627422   T   T   T
  1.1803164224363376  1.0728788773429792  0.2818533974344875   T   T   T
  1.6679307653187183  1.5555572393051220  0.2589692644320317   T   T   T
  1.0284918015883708  1.3503606675759279  0.2760063337225233   T   T   T
  1.5316635789362383  0.8552202039626570  0.2801197385260163   T   T   T
  1.3848865518877449  1.1437901212173256  0.2939482448993856   T   T   T
  1.8859069982459400  1.6312137571862650  0.2698156219578270   T   T   T
  0.9523855257617787  0.9988547120933025  0.2963595174364660   T   T   T
  1.4614473550174651  1.4946909218376625  0.2857032535884457   T   T   T
  1.3171661480374073  0.7731433156482498  0.2795577559197860   T   T   T
  1.8130418180975190  1.2778866004188536  0.2850389341765013   T   T   T
  1.2494997404304846  1.4194968976433422  0.2855843638848297   T   T   T
  1.7351167116722255  0.9143703721196899  0.2679945050165573   T   T   T
  1.0997108886589302  1.7025928272667870  0.2802887082632259   T   T   T
  1.6021815971800375  1.2133838225479976  0.2781215133364869   T   T   T
  1.1402797779038112  1.2662884908158145  0.2927590193859361   T   T   T
  1.6415825461777005  0.7613835230349622  0.2752046614783494   T   T   T
  0.9941190407412491  1.5457020798345302  0.2796749176131985   T   T   T
  1.4977951521941644  1.0473858518602202  0.2785976226009241   T   T   T
  0.9224289592983831  1.1959983533728884  0.2835441976365540   T   T   T
  1.4303452648771160  1.6959458159788563  0.2922111573698769   T   T   T
  1.2842531070720060  0.9851240929796931  0.2822066297520562   T   T   T
  1.7728814815971763  1.4815217516990340  0.2653117055464920   T   T   T
  1.3601529125805318  1.3462315374261795  0.2851792462082031   T   T   T
  1.8512585844444382  0.8297514770283745  0.2814074678698579   T   T   T
  1.2099972889247597  1.6140087601480495  0.2846421491362301   T   T   T
  1.7114899775039740  1.1214887508931002  0.2778962616984629   T   T   T
  1.0727960534492280  0.8993390921930218  0.2769382859738569   T   T   T
  1.5692295904164539  1.4045012638372962  0.2855189994102947   T   T   T
  1.2614379679999468  1.2265893215989834  0.2945403202856806   T   T   T
  1.7528946880596339  1.7104410270634693  0.2707262268308498   T   T   T
  1.1131392810471530  1.4920152698967559  0.2828814418734261   T   T   T
  1.6182753569460377  0.9881571068938072  0.2746474182127849   T   T   T
  1.0415316812578632  1.1400394121977286  0.2799015767192771   T   T   T
  1.5447742650683127  1.6458370501021000  0.2888670122295365   T   T   T
  1.4036834037813304  0.9192117852351720  0.2796767892025840   T   T   T
  1.8946862085909344  1.4268647345740813  0.2789242001801825   T   T   T
  1.3283260873162459  1.5764322378488649  0.2902945269331151   T   T   T
  1.8256277753740831  1.0659938327259806  0.2845711444597175   T   T   T
  1.1896196051815950  0.8494363454683784  0.2739746943502800   T   T   T
  1.6878632956727659  1.3622033440170911  0.2704734816095034   T   T   T
  0.9719097271152711  0.7831316327231453  0.2847879766494192   T   T   T
  1.4710954834242349  1.2889373718972705  0.2933519995869488   T   T   T
  1.2404689074259145  1.1099680068107571  0.1685023843517529   T   T   T
  1.7402124385759785  1.6219461578725758  0.1513657623391877   T   T   T
  1.0965143033142968  1.3726043654898332  0.1692427547453297   T   T   T
  1.5987030164859077  0.8731472792919528  0.1634496903149747   T   T   T
  0.9538895760295680  1.6689742622573722  0.1655069478672007   T   T   T
  1.4605774377573093  1.1659233405298774  0.1786052303869489   T   T   T
  1.0240292143432166  1.0208440727524297  0.1738274059003173   T   T   T
  1.5237462636185277  1.5154501571171044  0.1769281842332972   T   T   T
  1.3820118736436946  0.8041496288582044  0.1634216096748261   T   T   T
  1.8768170640570874  1.3075536706138848  0.1683822235546708   T   T   T
  1.3198900101688764  1.4440339414901713  0.1782474710008426   T   T   T
  1.8081567482138601  0.9517831306421397  0.1617327337939899   T   T   T
  1.1644210248996785  1.7198125201001608  0.1696486089954013   T   T   T
  1.6691800426859229  1.2470365591512420  0.1630036781115708   T   T   T
  1.2076762037389768  1.3103995401140593  0.1815462048509798   T   T   T
  1.7178608337102323  0.7996566080842841  0.1451996410555979   T   T   T
  1.0739951783189354  1.5759513152015892  0.1623477889704203   T   T   T
  1.5720443679303457  1.0890576394596121  0.1654478567415607   T   T   T
  0.9913830712119761  1.2255957368420911  0.1720153584203493   T   T   T
  1.4973275695176613  1.7335757438723318  0.1753963360163202   T   T   T
  1.3504466376403832  1.0086090521193889  0.1702473459424130   T   T   T
  1.8531402359748792  1.5090143699028906  0.1533039553378521   T   T   T
  0.9346183255964778  0.8697039686512876  0.1598971137772600   T   T   T
  1.4216989041477386  1.3615912107479757  0.1692763032468245   T   T   T
  1.2798695677826615  1.6521119979659966  0.1729773526112358   T   T   T
  1.7838840983691218  1.1637686209887497  0.1676031611489658   T   T   T
  1.1448385635762224  0.9358990450195005  0.1624932127934536   T   T   T
  1.6315345571988686  1.4389809579177621  0.1550056456342845   T   T   T
  1.3363082664216825  1.2150967437719820  0.1729541591922571   T   T   T
  1.8370361968658497  1.7279777796585121  0.1638369050329282   T   T   T
  1.1297174687900158  1.1592387726300215  0.1663052973392263   T   T   T
  1.6191247508460562  1.6647821732011083  0.1577999211422229   T   T   T
  0.9796892215738404  1.4510384414034880  0.1504003106789785   T   T   T
  1.4787880785428758  0.9584589738679276  0.1641141134530747   T   T   T
  0.9075512507664284  1.0823658636157638  0.1655063445258547   T   T   T
  1.4098252129371160  1.5816749211937660  0.1735929022150750   T   T   T
  1.2618789392114673  0.8627848512400921  0.1709315278463378   T   T   T
  1.7625535891152471  1.3770725479628538  0.1460499910853333   T   T   T
  1.2043317022351610  1.5006157267093754  0.1636060489011509   T   T   T
  1.6958801738568039  1.0272788210535384  0.1595208142860602   T   T   T
  1.0546157868696870  0.8028504671857903  0.1571514588014355   T   T   T
  1.5488299641549066  1.2921908509798548  0.1654491819200510   T   T   T
  1.1710515827343733  1.4033873286679488  0.2814954961317940   T   T   T
  1.6709995692861088  0.9022432285564762  0.1711904972808190   T   T   T
  1.1033744082470729  1.0247343563238318  0.2758476133806662   T   T   T
  1.5975663448996755  1.5408090612090963  0.2720573891985476   T   T   T
  0.9497254081224217  1.3250828232844103  0.2667693971303197   T   T   T
  1.4593237915209742  0.8265472327483865  0.2752944673749709   T   T   T
  1.3081684242708358  1.1171866242495812  0.2867742885839804   T   T   T
  1.8006777535437490  1.6048202118509722  0.2617986840300968   T   T   T
  1.3823253744829236  1.4771327746130096  0.2765570655674288   T   T   T
  1.8767005018103471  0.9567423941624793  0.2839565735104046   T   T   T
  1.2348804642321545  0.7419069837094210  0.2643398895221669   T   T   T
  1.7295430813046784  1.2520014577695486  0.2727325149086550   T   T   T
  1.0207860604497718  1.6701862139084438  0.2651580506975419   T   T   T
  1.5239867939665330  1.1899970168491969  0.2697444093308113   T   T   T
  1.2853500161617772  1.3192389159770703  0.2206585598471394   T   T   T
  1.7852781475267845  0.8250581295624828  0.2164063455848683   T   T   T
  1.0715621382610137  1.2528912752346675  0.2229778117670294   T   T   T
  1.5719907057856346  0.7555035428211850  0.2201519672184523   T   T   T
  0.9222252459854422  1.5301713596122408  0.2076628937169661   T   T   T
  1.4256422294659734  1.0369612320209929  0.2205572178828445   T   T   T
  1.0021220669724753  0.8893835186143736  0.2171800945139611   T   T   T
  1.4991448023404985  1.3956285732096831  0.2233803845907955   T   T   T
  1.3556201368812950  1.6858023128524593  0.2177941361694220   T   T   T
  1.8571669428475688  1.1750765597058015  0.2233228653888914   T   T   T
  1.2145822168678622  0.9722113893267526  0.2161623864432716   T   T   T
  1.7110930180275956  1.4793558180893607  0.1889442914374108   T   T   T
  1.1453415397875228  1.5901175836360175  0.2157539867132272   T   T   T
  1.6408026342271140  1.1265645726386886  0.2202275277706143   T   T   T
 
 -0.77287703E-02 -0.14706590E-02  0.83270736E-03
 -0.35628244E-02 -0.48336485E-03  0.78057596E-02
 -0.20628260E-02  0.61639759E-02 -0.87674859E-02
  0.83073446E-02  0.26731291E-02  0.15127939E-02
 -0.68877168E-02  0.25399036E-02 -0.69925550E-02
 -0.76058472E-02  0.80233946E-02 -0.57864107E-02
  0.49992060E-02  0.47764022E-02  0.12322180E-02
  0.12280380E-02  0.86313830E-03  0.90025028E-03
  0.22762949E-02  0.10268722E-01  0.78824909E-02
 -0.70850566E-03  0.14361397E-02 -0.57197766E-02
 -0.13684080E-01  0.14378265E-02  0.64074904E-02
  0.25680900E-02 -0.11371411E-03 -0.13372701E-02
 -0.53366620E-02 -0.11285626E-01  0.13013212E-01
 -0.71022840E-03 -0.32657920E-02 -0.90015444E-03
  0.58221651E-02 -0.72091695E-02  0.42115312E-02
 -0.14992791E-02 -0.89957712E-02  0.47233418E-02
 -0.36803572E-02 -0.19741766E-02 -0.39796501E-02
  0.25467749E-02 -0.77550362E-03  0.17169845E-01
 -0.67987601E-02 -0.10469713E-01  0.45597613E-02
  0.10634776E-01 -0.28967521E-02 -0.29622071E-03
 -0.62880457E-02 -0.82529970E-02 -0.12734594E-02
 -0.27677367E-02 -0.20103928E-02  0.10689292E-01
 -0.20347803E-02 -0.23026587E-02 -0.24305487E-02
  0.73610525E-02 -0.35661999E-02 -0.79052409E-02
 -0.21241203E-02  0.76706962E-02 -0.95668787E-02
 -0.36655896E-02 -0.38356576E-02 -0.86355781E-02
  0.26068281E-02  0.94031676E-03 -0.35163854E-03
  0.27150515E-02  0.64831585E-02 -0.21490267E-02
 -0.26898916E-02 -0.73619170E-02 -0.18611505E-02
 -0.23448113E-03 -0.72692814E-02 -0.71791099E-03
 -0.22134202E-03 -0.53319749E-02 -0.51955128E-02
 -0.10108086E-01  0.33687071E-02 -0.17123796E-02
 -0.10597527E-01  0.45060800E-02 -0.45049378E-02
 -0.77017278E-02  0.48733166E-02 -0.23384306E-02
  0.43323173E-02 -0.61544529E-02 -0.12161546E-01
 -0.17938446E-02 -0.73107813E-03 -0.11568793E-01
 -0.82292011E-02 -0.27767686E-02 -0.78169075E-02
 -0.14097194E-01 -0.36252149E-02  0.24278397E-02
  0.11474668E-01  0.10300387E-01  0.42583656E-02
 -0.50588764E-02  0.11854797E-02 -0.83095162E-02
  0.55496300E-02  0.76175164E-03  0.33671661E-02
  0.27016997E-02  0.50799835E-02 -0.26406563E-02
 -0.10460375E-01 -0.22036017E-02  0.15987313E-01
  0.26410707E-02  0.45942545E-02  0.12347781E-02
 -0.33342478E-04 -0.45398592E-03 -0.45731223E-03
  0.35562439E-02 -0.51397208E-02 -0.39094763E-02
  0.27823418E-02  0.73404496E-03  0.73890316E-02
 -0.99426198E-03  0.51392714E-02 -0.35668404E-02
 -0.56811525E-02  0.69642272E-02 -0.58563450E-02
 -0.13402718E-03  0.15663766E-03  0.73326204E-02
 -0.47770450E-03  0.27911602E-03 -0.92827025E-03
 -0.69770385E-02 -0.18197335E-02  0.18945365E-02
 -0.19868533E-02  0.51461977E-02  0.24268232E-02
 -0.11355310E-01  0.14852984E-01  0.26767511E-02
  0.50528376E-02  0.24581564E-04 -0.18019175E-03
  0.18880661E-02  0.67674139E-03 -0.15273833E-01
 -0.30154653E-02 -0.12400250E-02 -0.18966507E-02
  0.16999712E-02 -0.42834351E-02  0.17234018E-02
  0.17412716E-02  0.53191275E-02  0.41850411E-02
 -0.16536759E-02 -0.37382441E-02 -0.15975331E-02
  0.67452499E-02  0.26077700E-02 -0.92266300E-02
 -0.41653837E-03  0.96807857E-04  0.55828776E-02
 -0.59144768E-02 -0.36211762E-02 -0.64765401E-02
  0.49539487E-02 -0.19997184E-02 -0.34330897E-02
  0.46439201E-02  0.31141056E-02 -0.69334635E-02
  0.30205234E-02 -0.65376811E-03 -0.24887945E-02
 -0.44628945E-02  0.16437063E-02  0.15014691E-02
 -0.72975202E-02 -0.53788193E-02 -0.16735753E-02
 -0.19981199E-02 -0.66523466E-02  0.42730229E-02
 -0.30823305E-02  0.31174570E-02 -0.41559125E-03
  0.50877224E-02  0.17640387E-02  0.45341275E-02
 -0.95488887E-02  0.10597830E-02  0.29791942E-02
  0.30550882E-02 -0.15317382E-02 -0.59808716E-02
  0.14067868E-02  0.16006641E-03  0.60567302E-02
 -0.48060352E-02  0.12140417E-02 -0.22991774E-02
  0.26968688E-02  0.12648963E-03  0.71474186E-02
 -0.23743804E-02  0.41082654E-04 -0.76553432E-02
  0.61887679E-02  0.85280641E-02 -0.80604420E-02
 -0.44019698E-02 -0.16088248E-02 -0.50956438E-02
 -0.20958499E-02 -0.33413895E-02  0.60297281E-02
 -0.18177415E-01 -0.73456849E-02 -0.29371902E-02
  0.10949938E-01  0.20158457E-02  0.64943590E-02
 -0.29329260E-02  0.36815927E-02  0.25518181E-02
 -0.10626962E-01  0.97523514E-04  0.58015266E-03
 -0.15513123E-01  0.50907887E-03 -0.10141695E-01
  0.43415658E-02  0.99287469E-02 -0.81115959E-02
 -0.22153660E-02 -0.15937756E-01  0.44961446E-02
 -0.12616637E-02 -0.77072749E-02  0.24993523E-02
  0.28824573E-02 -0.84732689E-02  0.48768037E-02
 -0.30266443E-02  0.68380779E-02 -0.19471310E-02
  0.86015786E-02  0.58131779E-02  0.23105203E-02
  0.93060846E-02  0.40005163E-02  0.46724022E-02
 -0.59481424E-03 -0.66414927E-02 -0.53198271E-03
 -0.29842775E-02 -0.74256922E-02  0.69607973E-02
  0.92396746E-02  0.22669596E-02  0.55451452E-03
  0.16967257E-02 -0.58016801E-03  0.43032132E-02
  0.89898531E-02 -0.30644299E-02 -0.26212717E-03
 -0.23252721E-02  0.39274243E-02 -0.84697679E-02
 -0.80624668E-02  0.11449357E-01  0.12299962E-02
 -0.53316305E-02  0.44778709E-02 -0.57900415E-02
  0.34334108E-02  0.30453750E-02 -0.73006504E-03
 -0.42398671E-02 -0.25095359E-02  0.20403856E-02
 -0.34220824E-02 -0.25735681E-02  0.35163360E-02
 -0.17392665E-02  0.44650353E-02  0.51875480E-02
  0.13717394E-01  0.11757284E-02 -0.77683312E-03
  0.49310402E-02 -0.26113912E-02  0.73908892E-02
 -0.57920617E-02  0.67699048E-02  0.51521032E-02
 -0.33633682E-02 -0.78005962E-02  0.18005976E-02
 -0.11245527E-01  0.72700135E-02 -0.40260026E-02
  0.55933527E-02 -0.27027486E-02  0.10645762E-01
  0.35839957E-02 -0.15809695E-01  0.23542761E-02
  0.69797592E-02  0.57077861E-02  0.14225543E-01
 -0.58194124E-02 -0.24999637E-02 -0.29972213E-02
 -0.67870307E-02 -0.70503211E-02 -0.16388868E-02
  0.34424811E-02 -0.51917930E-02  0.30933235E-02
 -0.18443058E-02  0.21012813E-02 -0.10961315E-03
 -0.69498390E-02 -0.74903614E-03 -0.86821830E-02
  0.27463107E-02 -0.25540088E-02 -0.12001305E-02
 -0.37579951E-02 -0.71901831E-02 -0.28320558E-02
  0.15932807E-02  0.63389783E-02  0.13099176E-02
 -0.15078414E-02  0.94200567E-02 -0.39987831E-02
 -0.26574472E-02  0.75045512E-02 -0.23222926E-02
  0.63894355E-03 -0.16304441E-01 -0.54226260E-02
 -0.25185238E-02  0.17034780E-02  0.29784379E-02
  0.49499728E-02  0.67550880E-03  0.34094146E-02
  0.74702148E-02  0.26178097E-02 -0.25110421E-02
  0.84617328E-02  0.16914537E-02 -0.69873777E-02
  0.33119302E-03  0.63952942E-02 -0.47801133E-02
 -0.16659788E-01 -0.68610648E-02  0.77547252E-02
 -0.35067275E-02 -0.18204870E-02 -0.37798978E-02
 -0.14461952E-02  0.66398901E-02 -0.27836235E-02
 -0.63376042E-03  0.38902133E-02 -0.93051146E-04
  0.69589612E-04  0.28663928E-02  0.10300566E-01
 -0.15838513E-02 -0.71982882E-02 -0.84281833E-02
 -0.31503591E-02 -0.76106607E-03  0.67459276E-02
  0.85618505E-02 -0.13691460E-01 -0.41539982E-02
 -0.61402086E-02 -0.87054011E-02 -0.97291666E-03
  0.19001099E-02 -0.50438992E-02  0.29292924E-02
 -0.28450153E-02  0.47551421E-02 -0.81079983E-03
 -0.23208509E-02 -0.37824010E-02 -0.11645388E-03