rec1CONTCARshift 
1.0 
14.001653 8.083826 0.000000 
0.000000 16.167700 0.000000 
0.000000 0.000000 30.000000 
C P S Cu In 
86 14 42 7 7 
Selective Dynamics
Direct 
0.022845 0.141610 0.401845 T T T 
0.185354 0.118042 0.399460 T T T 
0.348150 0.092590 0.399474 T T T 
0.511314 0.067981 0.402379 T T T 
0.675033 0.046353 0.401810 T T T 
0.835564 0.022829 0.401852 T T T 
0.000000 0.000115 0.401729 T T T 
0.046354 0.278617 0.401810 T T T 
0.209928 0.255316 0.402213 T T T 
0.373915 0.229901 0.399497 T T T 
0.534758 0.209926 0.402213 T T T 
0.696605 0.185353 0.399460 T T T 
0.858216 0.164948 0.402153 T T T 
0.067984 0.420709 0.402379 T T T 
0.229914 0.396174 0.399498 T T T 
0.396182 0.373907 0.399498 T T T 
0.559261 0.348150 0.399474 T T T 
0.721095 0.324748 0.402059 T T T 
0.885934 0.301547 0.401940 T T T 
0.092591 0.559260 0.399474 T T T 
0.255320 0.534757 0.402212 T T T 
0.420709 0.511309 0.402380 T T T 
0.580347 0.488435 0.402059 T T T 
0.743284 0.465341 0.401987 T T T 
0.907375 0.440776 0.399496 T T T 
0.118043 0.696605 0.399460 T T T 
0.278615 0.675032 0.401810 T T T 
0.440777 0.651850 0.399496 T T T 
0.601352 0.631796 0.402363 T T T 
0.766859 0.601348 0.402363 T T T 
0.931224 0.580346 0.402059 T T T 
0.141608 0.835561 0.401851 T T T 
0.301549 0.812520 0.401940 T T T 
0.465344 0.791378 0.401987 T T T 
0.631796 0.766855 0.402363 T T T 
0.791380 0.743282 0.401986 T T T 
0.954160 0.721095 0.402059 T T T 
0.164954 0.976831 0.402152 T T T 
0.324752 0.954158 0.402058 T T T 
0.488436 0.931222 0.402059 T T T 
0.651851 0.907374 0.399496 T T T 
0.812523 0.885932 0.401940 T T T 
0.976836 0.858225 0.402154 T T T 
0.123419 0.078002 0.402198 T T T 
0.286970 0.054727 0.401822 T T T 
0.447408 0.031797 0.401941 T T T 
0.612248 0.008570 0.402043 T T T 
0.147982 0.215291 0.399462 T T T 
0.310532 0.191720 0.401900 T T T 
0.475123 0.168380 0.402124 T T T 
0.636728 0.147981 0.399462 T T T 
0.798582 0.123420 0.402199 T T T 
0.959424 0.103431 0.399502 T T T 
0.008574 0.379184 0.402044 T T T 
0.168387 0.356498 0.402122 T T T 
0.333419 0.333192 0.401720 T T T 
0.497745 0.310538 0.401900 T T T 
0.658304 0.286969 0.401821 T T T 
0.822023 0.265350 0.402361 T T T 
0.985184 0.240748 0.399472 T T T 
0.031799 0.520797 0.401941 T T T 
0.191723 0.497741 0.401902 T T T 
0.356498 0.475116 0.402124 T T T 
0.520800 0.447406 0.401941 T T T 
0.681488 0.425957 0.399495 T T T 
0.844901 0.402111 0.402080 T T T 
0.054728 0.658304 0.401823 T T T 
0.215292 0.636727 0.399462 T T T 
0.379185 0.612245 0.402042 T T T 
0.541943 0.590064 0.401986 T T T 
0.701546 0.566474 0.402360 T T T 
0.867998 0.541941 0.401985 T T T 
0.078005 0.798579 0.402198 T T T 
0.240748 0.774070 0.399472 T T T 
0.402115 0.752990 0.402081 T T T 
0.566478 0.731980 0.402360 T T T 
0.731982 0.701546 0.402360 T T T 
0.892556 0.681487 0.399495 T T T 
0.103424 0.937155 0.399502 T T T 
0.265353 0.912629 0.402361 T T T 
0.425958 0.892556 0.399495 T T T 
0.590067 0.867996 0.401985 T T T 
0.752991 0.844899 0.402080 T T T 
0.912629 0.822022 0.402361 T T T 
0.774071 0.985182 0.399472 T T T 
0.937154 0.959429 0.399502 T T T 
0.855410 0.711945 0.194494 T T T 
0.432349 0.855735 0.194690 T T T 
0.711941 0.432714 0.194524 T T T 
0.288523 0.567838 0.194833 T T T 
0.567868 0.143621 0.194827 T T T 
0.143636 0.288529 0.194833 T T T 
0.000022 0.999998 0.194957 T T T 
0.000018 0.000003 0.270621 T T T 
0.855646 0.711298 0.270274 T T T 
0.433023 0.855788 0.270337 T T T 
0.711266 0.433140 0.270290 T T T 
0.287389 0.569942 0.270177 T T T 
0.569987 0.142682 0.270164 T T T 
0.142710 0.287371 0.270180 T T T 
0.957682 0.577869 0.174939 T T T 
0.530391 0.720985 0.172829 T T T 
0.100191 0.864713 0.175253 T T T 
0.811779 0.296691 0.175001 T T T 
0.389006 0.432770 0.175321 T T T 
0.668131 0.008838 0.175032 T T T 
0.244127 0.153139 0.175077 T T T 
0.721765 0.746790 0.171185 T T T 
0.296580 0.891622 0.174972 T T T 
0.577877 0.464429 0.174922 T T T 
0.153140 0.602747 0.175076 T T T 
0.864730 0.035135 0.175243 T T T 
0.432784 0.178223 0.175325 T T T 
0.008861 0.323040 0.175035 T T T 
0.891611 0.811806 0.174951 T T T 
0.464547 0.957536 0.174913 T T T 
0.746802 0.531468 0.171224 T T T 
0.322995 0.668091 0.175029 T T T 
0.602781 0.244097 0.175060 T T T 
0.178252 0.388992 0.175319 T T T 
0.035129 0.100174 0.175245 T T T 
0.989251 0.677471 0.288534 T T T 
0.567086 0.820517 0.288255 T T T 
0.134527 0.965097 0.288320 T T T 
0.846735 0.398486 0.284025 T T T 
0.421915 0.532880 0.288650 T T T 
0.708991 0.101968 0.284011 T T T 
0.277923 0.245256 0.289030 T T T 
0.754827 0.846730 0.284023 T T T 
0.333212 0.989396 0.288586 T T T 
0.612499 0.567110 0.288233 T T T 
0.189068 0.708948 0.284023 T T T 
0.900419 0.134514 0.288317 T T T 
0.476890 0.277912 0.289010 T T T 
0.045253 0.421898 0.288656 T T T 
0.965116 0.900396 0.288322 T T T 
0.820473 0.612459 0.288216 T T T 
0.398448 0.754898 0.284075 T T T 
0.677519 0.333280 0.288533 T T T 
0.245259 0.476855 0.289033 T T T 
0.532910 0.045229 0.288652 T T T 
0.102015 0.189057 0.284026 T T T 
0.616114 0.904550 0.184325 T T T 
0.904553 0.479342 0.184327 T T T 
0.479272 0.616093 0.184417 T T T 
0.048177 0.759289 0.184993 T T T 
0.759292 0.192539 0.184994 T T T 
0.333346 0.333332 0.185040 T T T 
0.192539 0.048175 0.184993 T T T 
0.812353 0.947606 0.239145 T T T 
0.666798 0.666728 0.238926 T T T 
0.240183 0.812230 0.239217 T T T 
0.947679 0.240093 0.239174 T T T 
0.525384 0.380487 0.240584 T T T 
0.094248 0.525276 0.240576 T T T 
0.380503 0.094204 0.240633 T T T
