carbon_up_CONTCAR_supper                
   1.00000000000000     
    28.0032999999999994    0.0000000000000000    0.0000000000000000
     0.0000000000000000   16.1677000000000000    0.0000000000000000
     0.0000000000000000    0.0000000000000000   30.0000000000000000
   C    P    S    Cu   In
   172    28    84    14    14
Selective dynamics
Direct
  0.6684943797365085 -0.2710751781442104  0.3939077483786524   T   T   T
  1.1716061546979388  0.2163489415585562  0.4103512400205182   T   T   T
  0.7432156205056483  0.6292512982822988  0.3932638245160894   T   T   T
  1.2399073989756433  0.1263804165892597  0.4061939106400708   T   T   T
  0.8121943289831497  0.5335314100991289  0.3997001127720947   T   T   T
  1.3099607476461401  0.0335237165288035  0.4060274347652398   T   T   T
  0.8805995312063826  0.4423443552698657  0.4045173735810858   T   T   T
  1.3785446108597939 -0.0598457973171853  0.4045483053787889   T   T   T
  0.9498458911255426  0.3499005293219510  0.4089346921303729   T   T   T
  1.4487996296732144 -0.1498346892950515  0.4043805234144698   T   T   T
  1.0167337239782475  0.2558347555164636  0.4019025436000398   T   T   T
  1.5189112218156944 -0.2397086807885545  0.4032792146095905   T   T   T
  0.5897821578725428 -0.3291133755764117  0.3973454774769815   T   T   T
  1.0862819972804525  0.1617592073855744  0.4049515271190714   T   T   T
  0.7487535544885130 -0.2202306568773735  0.3902238903963266   T   T   T
  1.2502569829520327  0.2772251265346035  0.4080723628584874   T   T   T
  0.8214503650526925 -0.3126331242610871  0.3927217333966861   T   T   T
  1.3193533508496071  0.1872549469400251  0.4051237909235487   T   T   T
  0.8923361079252505  0.5921846288605969  0.3963876816537154   T   T   T
  1.3895683723592829  0.0939161612044944  0.4052658210141054   T   T   T
  0.9624444152194763  0.5018072772532381  0.4016723790013287   T   T   T
  1.4570103954361280  0.0020314088413631  0.4018630379651465   T   T   T
  1.0305322986843972  0.4054138691427777  0.4039362918594120   T   T   T
  1.5285154635574119 -0.0891392838146010  0.4045079201062449   T   T   T
  0.6002232303382860 -0.1831689330753103  0.3980757812879633   T   T   T
  1.1016361690922303  0.3088214030157653  0.4093079421903980   T   T   T
  0.8333747320749558 -0.1631565767936036  0.3988532207355439   T   T   T
  1.3332913746971591  0.3380859234583891  0.4090411671616346   T   T   T
  0.9023009075012552 -0.2569446112543645  0.3967318684823549   T   T   T
  1.4022794692039453  0.2450471991761522  0.4083133245478554   T   T   T
  0.9731631044626634  0.6523543814041722  0.3958332603433269   T   T   T
  1.4729284441158101  0.1514876727319356  0.4106868152647956   T   T   T
  1.0412110416122737  0.5578392698743638  0.3997849206700707   T   T   T
  1.5413192649713818  0.0623592976345937  0.4082501685274719   T   T   T
  0.6085656771853920 -0.0295716074877662  0.4031159286503165   T   T   T
  1.1120858636996773  0.4671258552670421  0.4046236099395513   T   T   T
  0.6811876637498078 -0.1255850406052825  0.3945436243208333   T   T   T
  1.1819527592772034  0.3686259252404465  0.4112395930438351   T   T   T
  0.9158143544869483 -0.1075791832686372  0.3987493953315028   T   T   T
  1.4159663369193332  0.3957233148327636  0.4055552830241910   T   T   T
  0.9845762056531806 -0.1991667160289695  0.3964577229967179   T   T   T
  1.4846996852477090  0.3016225617776624  0.4055935327431278   T   T   T
  1.0556422526400964 -0.2904592066343790  0.3955861832757123   T   T   T
  1.5525697616731182  0.2118192754745371  0.4015836133588272   T   T   T
  0.6236657709518301  0.1200866300863605  0.4006809462162289   T   T   T
  1.1228811886070591  0.6150662343045996  0.3966533182377990   T   T   T
  0.6942708625023483  0.0258510074378682  0.4029027733452468   T   T   T
  1.1938969411516827  0.5212291280029210  0.4032542331049654   T   T   T
  0.7643199701882101 -0.0712461821913690  0.3986561642231954   T   T   T
  1.2632594143783646  0.4266408601318279  0.4054706244174766   T   T   T
  0.9954075617806101 -0.0464839193988691  0.3991920224681590   T   T   T
  1.4987015773135279  0.4552057470752010  0.4096188113018073   T   T   T
  1.0633118305867497 -0.1411669281857476  0.3972144693735352   T   T   T
  1.5651813579625857  0.3629226618769412  0.4014077617578072   T   T   T
  0.6344495748971546  0.2708543759323943  0.4006746636200541   T   T   T
  1.1365149808668742 -0.2292338947655623  0.3906011606768104   T   T   T
  0.7052097939585369  0.1783477507733599  0.3993331542825166   T   T   T
  1.2044684106798975 -0.3277190794058817  0.3993818686845281   T   T   T
  0.7767949826474663  0.0826248327634248  0.4034962434863955   T   T   T
  1.2751909710393776  0.5789061870709195  0.4052352721662766   T   T   T
  0.8466546914746939 -0.0136458606222501  0.3986802519412496   T   T   T
  1.3454743849763282  0.4849183072621099  0.4062864567519571   T   T   T
  1.0766638211357022  0.0084639444332986  0.4010601596938437   T   T   T
  1.5794708012936700  0.5194057953626059  0.4018521813382980   T   T   T
  0.6477610500807667  0.4229685042098661  0.3979569243311556   T   T   T
  1.1464567028135146 -0.0826538036543339  0.4012556836336495   T   T   T
  0.7174359554929038  0.3301173473009870  0.3977241800551938   T   T   T
  1.2161972972032085 -0.1783094565934230  0.3989593674599377   T   T   T
  0.7861801732588933  0.2332904573596360  0.4001758065290641   T   T   T
  1.2865312392822184 -0.2716611487186715  0.4082771102265188   T   T   T
  0.8563293527838342  0.1389238169176283  0.4045954924133819   T   T   T
  1.3568448111950020  0.6369484176800515  0.4065399824333573   T   T   T
  0.9277246093467154  0.0466265190191975  0.4002491628041177   T   T   T
  1.4278588032579194  0.5480577190147502  0.4071237153808263   T   T   T
  0.6604672996305878  0.5754397310618603  0.3994797711716940   T   T   T
  1.1567983255258685  0.0712264468363134  0.4047952697853499   T   T   T
  0.7296145965732822  0.4771958893953220  0.3976797052006349   T   T   T
  1.2285781353426348 -0.0257243082478358  0.4037428902057169   T   T   T
  0.7983255182233775  0.3860438315822864  0.4023377601009439   T   T   T
  1.2978748041546491 -0.1213346089226366  0.4113358838548840   T   T   T
  0.8698017829368490  0.2917408058741984  0.4075839281821107   T   T   T
  1.3683208967164744 -0.2109081984356245  0.4054883376050947   T   T   T
  0.9390082774115704  0.1968359213971645  0.4051045153531038   T   T   T
  1.4377256898654200 -0.3013407516335687  0.4058716682600807   T   T   T
  1.0071708908469286  0.1062796660461889  0.4014693013095911   T   T   T
  1.5076147637560462  0.6058208034286107  0.4045565136360294   T   T   T
  0.6908454781823314  0.6467258613208329  0.3951816403625329   T   T   T
  1.1899856009568672  0.1356884298152796  0.4106447276179879   T   T   T
  0.7618862482083021  0.5469774609869100  0.3975479435859670   T   T   T
  1.2581207041789753  0.0439841923186117  0.4083346720462686   T   T   T
  0.8301728218823234  0.4516021428772243  0.4019743248459585   T   T   T
  1.3286821413380503 -0.0473161386856666  0.4062028329333390   T   T   T
  0.9001237311038883  0.3614802766247268  0.4079164021935476   T   T   T
  1.3981995047363243 -0.1414935195886113  0.4036002094864841   T   T   T
  0.7735776381350529 -0.3018314983926835  0.3886667962633711   T   T   T
  1.2692598998544360  0.1963038908910365  0.4081015490167756   T   T   T
  0.8420258010278192  0.6045332200610195  0.3955978810262477   T   T   T
  1.3385634035191989  0.1053223246646465  0.4058821002760592   T   T   T
  0.9128719653941488  0.5116790435518807  0.4015297326988371   T   T   T
  1.4089169930685947  0.0119028421486011  0.4046055344647298   T   T   T
  0.9812066427673960  0.4180174470470935  0.4046766378520822   T   T   T
  1.4782799057839267 -0.0797155455480159  0.4025036588865414   T   T   T
  1.0491526416447032  0.3216646099773528  0.4051419536118013   T   T   T
  1.5490512484995662 -0.1699050981411093  0.3987799969724756   T   T   T
  0.6202038066392948 -0.2614773312292333  0.3945438842333473   T   T   T
  1.1195983760902701  0.2286061715175795  0.4081657722962059   T   T   T
  0.7827812298964993 -0.1522503354775870  0.3935519368107076   T   T   T
  1.2816544095122977  0.3471309928749293  0.4097553534635896   T   T   T
  0.8517946334399287 -0.2452550285455879  0.3966855868511758   T   T   T
  1.3527880523067219  0.2581624005075855  0.4061595636947756   T   T   T
  0.9230154651442758  0.6617848945827486  0.3967435466604670   T   T   T
  1.4216506396788759  0.1619024106043864  0.4109740430352178   T   T   T
  0.9908569778894136  0.5708606679502278  0.4003394109076255   T   T   T
  1.4904057018904555  0.0707515389464637  0.4078878435149030   T   T   T
  1.0603588634974341  0.4770693075567317  0.4008012628672885   T   T   T
  1.5588110167568032 -0.0185663988159193  0.4041908934526107   T   T   T
  0.6309350101426702 -0.1117380567222723  0.3940406704622491   T   T   T
  1.1323602106422961  0.3826161846285244  0.4056441463891604   T   T   T
  0.7000717111565365 -0.2057445685639279  0.3947788619967966   T   T   T
  1.2004500058214873  0.2846645346314207  0.4094127895525087   T   T   T
  0.8658922966558367 -0.0953962367472115  0.4016604686017819   T   T   T
  1.3649849703514487  0.4093975586757359  0.4057031189981814   T   T   T
  0.9344321571563928 -0.1872685341754895  0.3936329385090030   T   T   T
  1.4355555199240932  0.3122232922731541  0.4075982769835047   T   T   T
  1.0053734993895891 -0.2810939832259881  0.3950202120588254   T   T   T
  1.5036262720376909  0.2219986197499723  0.4077604989920364   T   T   T
  1.0721370874686440  0.6288638338297792  0.3987356979959921   T   T   T
  1.5717628062300146  0.1308957027880641  0.4058494406774176   T   T   T
  0.6411561029577606  0.0389357485227646  0.4012979890497788   T   T   T
  1.1442325365666095  0.5328712946948040  0.4025608412360258   T   T   T
  0.7132715972228063 -0.0591684576282202  0.3975016151355508   T   T   T
  1.2133555300104484  0.4376228931020638  0.4076230373481566   T   T   T
  0.9454886361509616 -0.0345911277136854  0.3982210498991944   T   T   T
  1.4483313815504135  0.4665344434374051  0.4080316574411053   T   T   T
  1.0137748109890550 -0.1299885862747174  0.3983965219880732   T   T   T
  1.5157731050035068  0.3740795391527806  0.4026697223087070   T   T   T
  1.0870508148210609 -0.2210947926904167  0.3955338940757179   T   T   T
  1.5833141274939093  0.2837004735540360  0.4000651474021859   T   T   T
  0.6542638943101383  0.1904301384635898  0.3978588267671475   T   T   T
  1.1547037435987793 -0.3143443173360183  0.3942444204349029   T   T   T
  0.7253401154000035  0.0928657660188884  0.4050277689828344   T   T   T
  1.2239986583551514  0.5935590431046036  0.4057791218115216   T   T   T
  0.7954500280220892 -0.0019665628048288  0.4044320752693696   T   T   T
  1.2949697244021787  0.4983272411409844  0.4082084773368168   T   T   T
  1.0263891989713696  0.0247123675858427  0.4008219730909164   T   T   T
  1.5296016958627463  0.5248859166620857  0.4051787955629310   T   T   T
  0.5970974490893635  0.4352969301088807  0.4007217387663368   T   T   T
  1.0959949869659260 -0.0735468467234200  0.3991042359165266   T   T   T
  0.6676550502333859  0.3385479422824484  0.3972234456530838   T   T   T
  1.1662596478312717 -0.1617694639432237  0.3981213772908799   T   T   T
  0.7378568607302100  0.2463483980147743  0.3980040078968806   T   T   T
  1.2361003082487294 -0.2630618038248940  0.4011346851975220   T   T   T
  0.8071710802544056  0.1511694417185310  0.4031105610872566   T   T   T
  1.3046362859107716  0.6469991287090644  0.4097132794937167   T   T   T
  0.8765007715535796  0.0555995569560262  0.3991864023104459   T   T   T
  1.3759482039312378  0.5558065502698779  0.4041672861264337   T   T   T
  0.6098987034127481  0.5901757541631739  0.3985738654415607   T   T   T
  1.1068815658281244  0.0811651768504566  0.4017283377987503   T   T   T
  0.6786889894847659  0.4924030717410194  0.3994602917668434   T   T   T
  1.1777831965336587 -0.0112891597662543  0.4037783573328578   T   T   T
  0.7482571000859014  0.3971860232688695  0.3966678203059449   T   T   T
  1.2465900879689975 -0.1094913682819056  0.4066454742885199   T   T   T
  0.8177581390652243  0.3018139570167909  0.4042975514536338   T   T   T
  1.3178353500712356 -0.1985666046713060  0.4093602645680431   T   T   T
  0.8877607098429865  0.2080288007292926  0.4062280760736068   T   T   T
  1.3876834915697975 -0.2931042246896820  0.4061232917965362   T   T   T
  0.9591845187315901  0.1163253656720305  0.4003330041898860   T   T   T
  1.4579623158885988  0.6176627925146176  0.4052040218306673   T   T   T
  0.9690107713282526  0.2679069867830648  0.4060755782334199   T   T   T
  1.4679384301012102 -0.2320540549381843  0.4042641901635984   T   T   T
  1.0379646655541241  0.1760619553191250  0.4023382318617691   T   T   T
  1.5383975444283564 -0.3205756580672248  0.4015029089066167   T   T   T
  0.0855437263373142  0.5495269375030510  0.2599432651607885   T   T   T
  0.5856862330201229  1.0364700054283178  0.2685761351445994   T   T   T
 -0.0601264039837016  0.8217152476752616  0.2603415011248403   T   T   T
  0.4425668931675100  0.3351023358565040  0.2645456947902849   T   T   T
 -0.1312179819272488  0.4726283038339146  0.2688552094192976   T   T   T
  0.3696086302087773  0.9619010961314964  0.2620634443388086   T   T   T
  0.2316204791598258  0.2551491790172082  0.2590755973062546   T   T   T
  0.7282673954638424  0.7597847687983662  0.2680221046535028   T   T   T
  0.1550745454178398  0.9006397256250542  0.2607857474657773   T   T   T
  0.6511422694153239  0.4026751025959493  0.2702400422898411   T   T   T
  0.0163264782859382  0.1873499758301550  0.2687621451012791   T   T   T
  0.5167080665278698  0.6903239763573564  0.2658058283242898   T   T   T
  0.2993243841847640  0.6046630235021679  0.2636547826328129   T   T   T
  0.8002498333328593  1.1117528325494450  0.2674824317890917   T   T   T
  0.3009069936623263  0.6169898369421067  0.1880433672510338   T   T   T
  0.7987114630660710  1.1179337517263945  0.1927979159943539   T   T   T
  0.0871511432646746  0.5380988803132236  0.1863264853904997   T   T   T
  0.5831440825976499  1.0379885615433262  0.1934726758362493   T   T   T
 -0.0584752210479038  0.8297851615742273  0.1828534832445539   T   T   T
  0.4462872692074079  0.3261995536974143  0.1881582236985532   T   T   T
 -0.1344344019672813  0.4705126515395759  0.1938605368091866   T   T   T
  0.3715633868689867  0.9631053225870678  0.1902006356325696   T   T   T
  0.2270658072480988  0.2583345166174280  0.1826869680857744   T   T   T
  0.7234109155940549  0.7556653640549599  0.1948028414287756   T   T   T
  0.1520337170900815  0.9063392848952181  0.1855997126171285   T   T   T
  0.6530062314544591  0.3948579153604924  0.1964553919370301   T   T   T
  0.0107899294095196  0.1853753708779518  0.1906583064116753   T   T   T
  0.5109888814545790  0.6871399045669525  0.1897331376156550   T   T   T
  0.0662331112698346  0.4322581572282598  0.2794055824717059   T   T   T
  0.5700310621403386  0.9203104880569013  0.2936397455142754   T   T   T
 -0.0755265525372090  0.7080849951909557  0.2805384243732292   T   T   T
  0.4245982249449501  0.2135740012927625  0.2806822782976439   T   T   T
  0.2811243727891477  0.4925317445770891  0.2852119616645531   T   T   T
  0.7829040256098234  0.9965092841214046  0.2885545178376400   T   T   T
 -0.1527040283436141  0.3582480478764203  0.2885367934541493   T   T   T
  0.3499466643373393  0.8493167388714683  0.2880974447859691   T   T   T
  0.2099352670490393  0.1396192463627485  0.2773949241692025   T   T   T
  0.7060083244661657  0.6434265107095796  0.2804094131598843   T   T   T
  0.1423375478259012  0.7819723246518893  0.2774401969551734   T   T   T
  0.6298665874862068  0.2859336746090819  0.2901403911809071   T   T   T
  0.0050387165068911  1.0685894659729158  0.2899633841120691   T   T   T
  0.5040740638074818  0.5785663832481048  0.2926854536461974   T   T   T
  0.0354121599864163  0.6380099955719585  0.2734091964036078   T   T   T
  0.5372031451099978  0.1214450897689795  0.2881537591196069   T   T   T
 -0.1081359402918106  0.9169060165197738  0.2752396503619592   T   T   T
  0.3900280291772658  0.4221143227915615  0.2847431690051269   T   T   T
 -0.1809110616793996  0.5644246216871290  0.2887168210786586   T   T   T
  0.3211546445271288  1.0589153327831431  0.2779245516873602   T   T   T
  0.1792871242435140  0.3336366646758972  0.2827584926145408   T   T   T
  0.6769809458593606  0.8448189872551692  0.2867897413162125   T   T   T
  0.2528008144968173  0.6983887315489580  0.2797509165792210   T   T   T
  0.7481082538145241  0.2001964202877294  0.2829542847968577   T   T   T
  0.1057207976659604  0.9845568813737521  0.2820404493518349   T   T   T
  0.6001404870761219  0.4951722227508133  0.2910266135912787   T   T   T
 -0.0287942596640672  0.2785680814040246  0.2941942065626343   T   T   T
  0.4705081649410398  0.7731251876993499  0.2904462653829670   T   T   T
  0.1527744569527907  0.5848685755047600  0.2839942253259103   T   T   T
  0.6534222611626143  1.0789683856546948  0.2893303261844582   T   T   T
  0.0084599495881819  0.8582100424531510  0.2831349397235848   T   T   T
  0.5064704833980901  0.3636422810194144  0.2902970565300115   T   T   T
 -0.0634799298950041  0.5106889093836182  0.2848959997799552   T   T   T
  0.4355762353797203  0.9977895662992754  0.2864981129609585   T   T   T
  0.2975909835155655  0.2886746440661416  0.2794434352686469   T   T   T
  0.7931297913611932  0.7965835139230808  0.2914236359011111   T   T   T
  0.2219385268361447  0.9302258417477569  0.2799510945528047   T   T   T
  0.7223001258056538  0.4416832672516972  0.2876767165283964   T   T   T
  0.0838013278387392  0.2204738049020409  0.2866269390263284   T   T   T
  0.5840867270142979  0.7310109968519694  0.2816291937790575   T   T   T
 -0.1322646055005443  0.1516559320702832  0.2881248727587974   T   T   T
  0.3700728622320691  0.6458413244413992  0.2884398453921676   T   T   T
  0.1361238239150393  0.4466734404858659  0.1709442464684444   T   T   T
  0.6361121275618964  0.9634037458525980  0.1749969303998903   T   T   T
 -0.0083890442753786  0.7419772237332080  0.1708544725529878   T   T   T
  0.4971483553753331  0.2388645505422451  0.1780490667178155   T   T   T
 -0.1558702478600181  1.0241525517402965  0.1720773588947232   T   T   T
  0.3478225995174934  0.5272605813303534  0.1692978195190194   T   T   T
 -0.0809501046468442  0.3897749388599907  0.1775509914641050   T   T   T
  0.4155690781736379  0.8719367486745692  0.1690386418798865   T   T   T
  0.2746718996696796  0.1727630765355810  0.1580184782133735   T   T   T
  0.7718539192674261  0.6711945488485804  0.1668420732277559   T   T   T
  0.2034396237271311  0.8220244339597675  0.1678707991205204   T   T   T
  0.7011325114631108  0.3103738756442554  0.1737268012800184   T   T   T
  0.0595352249842045  1.0956461366359509  0.1777268726086793   T   T   T
  0.5541421332556470  0.5942495982775294  0.1703337589472896   T   T   T
  0.1048728082576491  0.6539085252532965  0.1668568595719648   T   T   T
  0.5972396772290310  0.1536313470701477  0.1776064882099877   T   T   T
 -0.0347160297066295  0.9396780099026171  0.1685852327141420   T   T   T
  0.4603165826358380  0.4396623675190330  0.1680290445899968   T   T   T
 -0.1151262026369151  0.5935967765618814  0.1758902127340536   T   T   T
  0.3882619249749863  1.0839899578677208  0.1727600122825512   T   T   T
  0.2468065352800197  0.3789143960121011  0.1683295241553587   T   T   T
  0.7464829501607003  0.8674642305524334  0.1712972108591201   T   T   T
 -0.1799847681166810  0.2337905030173754  0.1745577988599999   T   T   T
  0.3230962783541745  0.7283542983501050  0.1718369560329503   T   T   T
  0.1725790970255462  1.0235517399219647  0.1693126597641479   T   T   T
  0.6700246127935596  0.5148488951448591  0.1757004309000583   T   T   T
  0.0322000537410950  0.2986429103090161  0.1699202205822305   T   T   T
  0.5309685167380740  0.8066796227758752  0.1732254768227856   T   T   T
  0.2365915231914248  0.5929882949821925  0.1643870805452061   T   T   T
  0.7310002322484997  1.0858268617453608  0.1737573866040104   T   T   T
  0.0202411576713843  0.5044636919338115  0.1652677840519222   T   T   T
  0.5170283380449674  0.9998614319642546  0.1808849335052224   T   T   T
 -0.1250327379750911  0.8027902527633095  0.1648481034202866   T   T   T
  0.3783386703537986  0.2949407285397394  0.1710280908292049   T   T   T
 -0.2005270306168229  0.4441904088001916  0.1728087653504407   T   T   T
  0.3039480177194139  0.9399958839005284  0.1700438958677353   T   T   T
  0.1616776648717596  0.2303739109109874  0.1692901088202780   T   T   T
  0.6598724351800082  0.7344614610055569  0.1697552097390858   T   T   T
  0.0856182938585689  0.8693192393334987  0.1661828741726644   T   T   T
  0.5855838747022889  0.3674616721626295  0.1779345599399347   T   T   T
 -0.0569343274319566  0.1448966338886410  0.1853662174083961   T   T   T
  0.4416395489440308  0.6381071440983455  0.1829430188512229   T   T   T
  0.0622551624025097  0.7633353614045810  0.2694284316753731   T   T   T
  0.5569336386582526  0.2547689003922304  0.2750059273023716   T   T   T
 -0.0108507052986582  0.4063739992880610  0.2677454894489661   T   T   T
  0.4929165409428704  0.9033969602903389  0.2812073551872512   T   T   T
 -0.1558380514716489  0.6946879198962620  0.2761098151626389   T   T   T
  0.3481959159422650  0.1791025929181066  0.2661225527804888   T   T   T
  0.2035907404912802  0.4805544784266341  0.2759863236846253   T   T   T
  0.7057767545120043  0.9788542425656661  0.2948815807902106   T   T   T
  0.2781081923892045  0.8288843071408682  0.2728391630321513   T   T   T
  0.7690309321430979  0.3392721117338920  0.2748054030853913   T   T   T
  0.1347542843437247  1.1080812246444964  0.2729315177081690   T   T   T
  0.6291880710713512  0.6164948746377912  0.2782837764598399   T   T   T
 -0.0768569284980779  1.0471885481376011  0.2833602687320944   T   T   T
  0.4272841512422473  0.5430698012255865  0.2855365802737798   T   T   T
  0.1836497365694858  0.6874754794812432  0.2159330702389876   T   T   T
  0.6791286426341095  0.1805243573490189  0.2197832568646075   T   T   T
 -0.0312112202594733  0.6052063358652197  0.2075268491914847   T   T   T
  0.4668204810239825  0.1138098306077645  0.2203260736644352   T   T   T
 -0.1793392007486985  0.9008340683372205  0.2169518596511428   T   T   T
  0.3273911487283216  0.4008938319341586  0.2138769679440175   T   T   T
 -0.1038727581767309  0.2611917556921341  0.2220007635407375   T   T   T
  0.3973206063154067  0.7472316037537808  0.2257775515345532   T   T   T
  0.2533942448244309  1.0479902848052149  0.2125137455257856   T   T   T
  0.7447000377072355  0.5443672078649447  0.2188314578740273   T   T   T
  0.1107925166802541  0.3267081127074802  0.2202148497279288   T   T   T
  0.6088991615142895  0.8332310030019512  0.2207116443408925   T   T   T
  0.0343701365400599  0.9744874213127237  0.2236005818716247   T   T   T
  0.5328353987822597  0.4789105405182033  0.2241732836719424   T   T   T
 
  0.31227073E-02 -0.34621618E-02  0.98124573E-02
 -0.13208974E-01 -0.72612323E-02 -0.85408650E-03
 -0.26058428E-02 -0.64922363E-02  0.51253359E-02
  0.55967506E-02  0.47637113E-02  0.71613254E-03
 -0.20678507E-02 -0.31489107E-02 -0.14212956E-02
  0.90499751E-03 -0.60449746E-02 -0.49949565E-02
 -0.52493427E-04 -0.24482818E-02 -0.61846211E-02
  0.29690545E-05 -0.23417054E-02 -0.76561272E-03
 -0.34869214E-02 -0.65014634E-02 -0.57471272E-02
 -0.79777493E-03  0.83544847E-02 -0.58074587E-03
  0.24517072E-02 -0.33096932E-02 -0.67359584E-02
  0.83536445E-02 -0.46527341E-03 -0.37144884E-02
 -0.42044564E-02  0.30436435E-02 -0.46785022E-02
  0.58092781E-02 -0.56284591E-02 -0.26045923E-02
  0.32416317E-02 -0.67609355E-02  0.18620271E-02
 -0.33646050E-03  0.40098559E-02 -0.33139721E-02
  0.69295537E-02  0.54450881E-02 -0.93906841E-02
 -0.14156285E-02 -0.61693013E-02  0.45809917E-02
  0.45180386E-02  0.47278193E-03  0.30743105E-02
 -0.29642835E-02  0.13014921E-02 -0.32597011E-02
  0.41890429E-02  0.68190845E-02  0.23436824E-02
 -0.53427790E-03  0.65191926E-02  0.43938777E-02
  0.12754891E-02 -0.89196210E-02 -0.33349400E-02
  0.15904468E-01  0.22496088E-02  0.10709634E-01
 -0.46082056E-03  0.27624954E-02  0.25257562E-02
 -0.23297347E-02  0.30223733E-02 -0.36865070E-02
  0.77617344E-02 -0.58051287E-02 -0.19063658E-02
  0.33746839E-02  0.18430959E-02 -0.27134904E-02
  0.61593749E-02 -0.10794039E-02 -0.34027276E-03
  0.45508707E-02 -0.28538385E-02 -0.10521904E-01
  0.91181124E-02  0.38310587E-02  0.35203102E-02
 -0.49561264E-02 -0.14480603E-02 -0.45476728E-02
 -0.13373988E-01 -0.84783233E-02 -0.10589675E-02
  0.16319782E-02  0.72035727E-02  0.44989817E-02
  0.33856972E-02 -0.20446047E-02 -0.32886967E-03
  0.27603204E-02 -0.31500410E-02  0.40572003E-02
  0.34920698E-02  0.12367190E-02 -0.86680362E-02
  0.20235722E-02 -0.25239370E-02  0.13647732E-02
  0.19825974E-02  0.24272693E-02 -0.45213012E-02
  0.57205621E-02 -0.23875647E-02  0.70222391E-02
 -0.28829237E-02  0.11017763E-01 -0.58036513E-02
 -0.23127529E-02  0.28854057E-02 -0.18949082E-02
 -0.20382073E-02 -0.19445941E-02 -0.12478611E-01
  0.15813176E-02 -0.11351686E-02 -0.25863585E-02
 -0.34744274E-02  0.30315186E-02  0.51956258E-02
 -0.43237731E-02 -0.63454380E-02 -0.54215987E-02
  0.66448517E-02 -0.43743981E-02 -0.50955622E-02
 -0.13416792E-01 -0.12580521E-02  0.23563702E-02
  0.98411229E-03  0.48240386E-02  0.77895428E-02
 -0.11297555E-01  0.51923233E-02 -0.10710649E-02
 -0.31190820E-02  0.36951394E-02 -0.73202411E-04
 -0.29676762E-02 -0.50120867E-02 -0.50142099E-03
 -0.94450813E-02 -0.45186847E-03  0.11273631E-02
  0.19255480E-03  0.10815034E-02  0.26595171E-02
  0.38926675E-02  0.16538423E-02 -0.10431594E-01
  0.59221938E-02  0.12942156E-01 -0.10047065E-02
  0.11625544E-01  0.15957846E-02  0.49205962E-02
  0.72515562E-02  0.11673824E-02 -0.40701783E-02
 -0.59229853E-02  0.29932359E-02  0.15279014E-02
 -0.33625913E-02 -0.14526755E-02 -0.48313897E-03
  0.41274727E-02 -0.33790804E-02  0.12442242E-01
 -0.38432190E-02 -0.42459570E-02  0.22830241E-02
 -0.56663074E-02  0.88207081E-02 -0.68441575E-02
 -0.35047894E-02 -0.10284913E-01  0.21859640E-02
  0.28106435E-03  0.66626170E-02  0.47141169E-02
  0.53565323E-02  0.44906699E-02 -0.60902322E-03
  0.10640666E-01 -0.21337525E-02 -0.11819468E-02
  0.61635703E-02 -0.32417091E-02  0.61646889E-03
 -0.43484144E-02  0.27170338E-02 -0.64848815E-02
  0.35369347E-02 -0.47134636E-03 -0.28316724E-02
  0.79451919E-04  0.27667263E-04  0.25614408E-02
 -0.83790489E-02  0.47324384E-02  0.63913908E-02
 -0.88911657E-02  0.49044148E-02 -0.72071311E-02
 -0.12129764E-01  0.10753873E-01  0.20868052E-02
 -0.37736101E-02 -0.55557851E-02 -0.14232685E-02
 -0.58317659E-02 -0.39262784E-02 -0.85403566E-02
 -0.27296191E-02  0.13045210E-02  0.52708440E-02
 -0.84492126E-02 -0.13425474E-02 -0.25733511E-02
 -0.28048874E-03 -0.19486659E-02  0.15137612E-02
  0.34271983E-02 -0.14511604E-02 -0.25119995E-02
 -0.87899089E-02  0.40412117E-03 -0.76545457E-04
  0.42142451E-02 -0.90141467E-02 -0.11013426E-01
 -0.39455389E-02 -0.54698309E-02 -0.44834895E-02
  0.41627890E-03 -0.98925565E-03 -0.47857653E-03
 -0.23626129E-02  0.41940528E-02 -0.12348205E-01
  0.44764585E-02 -0.51889601E-03 -0.42421311E-02
  0.20274446E-02 -0.11640977E-02 -0.16997307E-02
  0.37401895E-02 -0.10445813E-02 -0.63854807E-02
  0.35634137E-02 -0.28230026E-02  0.73647266E-03
 -0.56195509E-03 -0.32606981E-02  0.18409338E-02
 -0.74743784E-02  0.12683222E-02 -0.19239731E-03
  0.24671053E-02  0.55513632E-03 -0.66855010E-02
  0.67488648E-03 -0.59686809E-02  0.34635255E-02
  0.31645835E-02 -0.29739637E-03  0.45828277E-02
  0.40852686E-02 -0.20001210E-02 -0.51771964E-02
 -0.54668074E-02  0.26234823E-02 -0.45121683E-03
 -0.61520899E-02  0.11023976E-01  0.34379681E-02
  0.10264436E-02  0.42053918E-02  0.66121576E-02
  0.24297782E-02 -0.52738531E-02 -0.20627716E-02
 -0.44812838E-02  0.27355772E-02  0.77114051E-02
  0.49683497E-02  0.80821674E-02  0.76787391E-02
 -0.42813500E-02 -0.44676551E-02  0.72167006E-02
  0.16715485E-02  0.40206442E-02  0.65070487E-02
  0.13478399E-01 -0.11515204E-01 -0.58240988E-02
 -0.63620856E-02  0.87590215E-02 -0.12123551E-01
  0.36495389E-02 -0.48023018E-02 -0.49770807E-04
 -0.11372603E-02  0.58247228E-02  0.21670634E-02
 -0.17785208E-02 -0.15574368E-02 -0.52606124E-02
  0.13828315E-02  0.35602579E-02 -0.27837937E-02
  0.43205934E-02  0.19849193E-02  0.25243742E-02
 -0.11361628E-02 -0.44627339E-02 -0.45522923E-02
 -0.87526698E-03 -0.10022223E-01 -0.36067018E-02
  0.13989449E-01  0.47257588E-02  0.31860240E-02
 -0.63520650E-02  0.75393100E-02  0.50782636E-02
 -0.41786360E-02 -0.38270777E-02 -0.26637686E-02
 -0.71049135E-02  0.29328439E-02 -0.55614102E-02
 -0.13223693E-02 -0.62364494E-02  0.17699628E-02
 -0.81129294E-03 -0.51042481E-02  0.51857124E-02
  0.82438888E-03  0.10325851E-02  0.28998960E-02
  0.27377623E-02  0.40889595E-03 -0.10315792E-01
 -0.51599145E-03  0.44122806E-02 -0.13631591E-02
  0.60305625E-02 -0.74777946E-02  0.75618846E-02
  0.13957587E-01  0.92995262E-03  0.74803478E-02
  0.53040937E-02  0.58831682E-02 -0.24855846E-02
  0.25737491E-02  0.47482009E-02 -0.29623142E-02
  0.96473203E-02  0.77875870E-03 -0.63353183E-02
 -0.52711651E-03  0.65582324E-02  0.19238196E-02
  0.48704376E-02 -0.17793149E-02  0.76817896E-02
  0.39904281E-02  0.10512471E-01  0.92691940E-03
  0.47460371E-02 -0.38419760E-02 -0.11286028E-02
  0.11753733E-02  0.40945970E-02  0.38867085E-02
 -0.13689692E-02  0.20690910E-02 -0.34593739E-02
  0.43512414E-02  0.68636411E-02 -0.16904719E-02
  0.50462309E-02  0.31075696E-02  0.72485986E-02
  0.83348892E-02 -0.43581120E-02 -0.10968889E-01
  0.40082309E-02  0.75091767E-02 -0.37009785E-02
  0.22043263E-03  0.47871218E-02 -0.89026587E-03
 -0.26604701E-02  0.23240151E-02  0.41436074E-02
  0.69996629E-02  0.15767223E-02 -0.57857055E-02
  0.48350160E-02 -0.57176319E-02  0.34115285E-02