largec3                                 
   1.00000000000000     
    28.0032999999999994    0.0000000000000000    0.0000000000000000
     0.0000000000000000   16.1677000000000000    0.0000000000000000
     0.0000000000000000    0.0000000000000000   30.0000000000000000
   C    P    S    Cu   In
   172    28    84    14    14
Selective dynamics
Direct
  0.3351641713059283 -3.5398415112463515  0.4017633722137504   T   T   F
  0.8351585766713642 -3.0322242149091307  0.4044064495509667   T   T   T
  0.4065854752393194 -2.6294877006158739  0.4072776058422466   T   T   T
  0.9057073208001473 -3.1257089018461723  0.4072248031622783   T   T   T
  0.4777840256726134 -2.7225871135056865  0.4079504366869959   T   T   T
  0.9768339769459704 -3.2191607687396528  0.4052397953367284   T   T   T
  0.5451786590336510 -2.8122213379713727  0.4034363443123495   T   T   T
  1.0455990985420167 -3.3118999598657686  0.4018186365758055   T   T   T
  0.6146664511209198 -2.9077963381622762  0.4040587309942820   T   T   T
  1.1170991167253683 -3.4033967286270244  0.4044039252022273   T   T   T
  0.6861012496871610 -2.9984678149463813  0.4054831668384070   T   T   T
  1.1848652363065741 -3.4997611536067441  0.4059088364515436   T   T   T
  0.7560697726968743 -3.0926640981562543  0.4085074687636547   T   T   T
  1.2555722752591456 -3.5950150808730519  0.4066902440803662   T   T   T
  0.4174117783257902 -3.4789846723055744  0.4018759054615894   T   T   T
  0.9181178566755142 -2.9723250377253279  0.4101406514179452   T   T   T
  0.4885705009501803 -3.5675034963864314  0.4083822180048053   T   T   T
  0.9862936032543060 -3.0677893960223761  0.4068226106708376   T   T   T
  0.5577119989570405 -2.6622435255461832  0.4100136900244922   T   T   T
  1.0582667866110891 -3.1624301677326621  0.4008762104225415   T   T   T
  0.6267241342592926 -2.7536839596486091  0.4033477467272827   T   T   T
  1.1274568865478010 -3.2534319572972827  0.4036076412551581   T   T   T
  0.6975104224802091 -2.8450825590893007  0.4046779840545827   T   T   T
  1.1964768150835905 -3.3461444204427431  0.4029104731341410   T   T   T
  0.2648166007458292 -3.4440085377526173  0.4059824583045595   T   T   T
  0.7659832748420593 -2.9421450479401563  0.4074440134143208   T   T   T
  0.4981031783249540 -3.4168948655723059  0.4073953876170227   T   T   T
  1.0010342961199696 -2.9140067815126236  0.4119161675300507   T   T   T
  0.5682659629437036 -3.5091745534458143  0.4112159483229552   T   T   T
  1.0671364803089152 -3.0136679064731227  0.4069901548275011   T   T   T
  0.6375601664063300 -2.6028873235314403  0.4091843815503063   T   T   T
  1.1368689130098186 -3.1055780340460335  0.4084180001294565   T   T   T
  0.7085184687585259 -2.6948933157245585  0.4066093986793715   T   T   T
  1.2093852960473166 -3.1966675630981727  0.4096457832374091   T   T   T
  0.2774140804642822 -3.2902722056019096  0.4018364521329769   T   T   T
  0.7800472772549641 -2.7927422913244233  0.4062604458861594   T   T   T
  0.3460900573553826 -3.3878698168775858  0.3982128598805025   T   T   T
  0.8458623729405232 -2.8826095387969244  0.4030690931201318   T   T   T
  0.5797132074275937 -3.3578109827961211  0.4111450549759130   T   T   T
  1.0825258305518899 -2.8592033786837998  0.4032512232255850   T   T   T
  0.6516375808826484 -3.4531042120523612  0.4070203080029792   T   T   T
  1.1478438372715640 -2.9572494554635655  0.4079661884843145   T   T   T
  0.7185764894902186 -3.5455656475548345  0.4015469803682267   T   T   T
  1.2191570704745760 -3.0471560407381779  0.4060106764775022   T   T   T
  0.2892799794859150 -3.1402837212464783  0.4023825039400775   T   T   T
  0.7896248239367120 -2.6406961429740723  0.4050608603104431   T   T   T
  0.3610372794579418 -3.2320247310615851  0.4001293855218969   T   T   T
  0.8601179208525163 -2.7339297016851654  0.4042406239578640   T   T   T
  0.4286596741561030 -3.3253027011322742  0.4007166771866188   T   T   T
  0.9297892217607033 -2.8222516699864775  0.4116178791574438   T   T   T
  0.6629078339961966 -3.3052477031407954  0.4079134508158574   T   T   T
  1.1638638405992814 -2.8013204129738769  0.4041564529334801   T   T   T
  0.7307809017721841 -3.3967780674154961  0.4049734932540129   T   T   T
  1.2317336923864117 -2.8941049529415288  0.4064274926921783   T   T   T
  0.3018415206612192 -2.9874501036902466  0.4067550208313686   T   T   T
  0.8018137838937264 -3.4865777183331188  0.4028890568721114   T   T   T
  0.3712750505549374 -3.0824935931307449  0.4051789559029425   T   T   T
  0.8689445485724090 -3.5811455337860534  0.4019703806173573   T   T   T
  0.4413259584299496 -3.1735197805379793  0.4087887925600328   T   T   T
  0.9399482984133121 -2.6739576378985994  0.4050062029025094   T   T   T
  0.5115490991315953 -3.2662362082584337  0.4125103036884485   T   T   T
  1.0113145467823272 -2.7681023499202433  0.4072345550757441   T   T   T
  0.7443533989264329 -3.2451357617316221  0.4117759219122076   T   T   T
  1.2441733381884235 -2.7436958407135683  0.4039397510076950   T   T   T
  0.3139340618953665 -2.8374248140865896  0.4072782558611579   T   T   T
  0.8137931983395770 -3.3366218878467064  0.4014576431580132   T   T   T
  0.3835288883421941 -2.9317887975973500  0.4026839354766123   T   T   T
  0.8832091258914824 -3.4285952605969650  0.3973011848584448   T   T   T
  0.4537445797717640 -3.0244430367749806  0.4028610986314266   T   T   T
  0.9524673755989189 -3.5225819127198070  0.3999123364671334   T   T   T
  0.5238923380839577 -3.1164160759470940  0.4070008358803418   T   T   T
  1.0217148903503996 -2.6164977148826680  0.4051194237865113   T   T   T
  0.5936751639460593 -3.2091899628180411  0.4080130058731192   T   T   T
  1.0927386612212611 -2.7059660136914245  0.4088134184949918   T   T   T
  0.3278935529630543 -2.6878322154060146  0.4074689892863455   T   T   T
  0.8246042472979938 -3.1853483910370084  0.4068522648894682   T   T   T
  0.3975288770538065 -2.7842635905718613  0.4045320784777273   T   T   T
  0.8943043548659432 -3.2770291968431651  0.4038817850494060   T   T   T
  0.4664055371826019 -2.8772385781284435  0.4042168559011854   T   T   T
  0.9641049527676949 -3.3711051353164687  0.3980798253517518   T   T   T
  0.5355776267257427 -2.9651659156599948  0.4039242431656651   T   T   T
  1.0341744375957895 -3.4656059793131520  0.4042818353412915   T   T   T
  0.6039771516396462 -3.0545821261465727  0.4079729975796970   T   T   T
  1.1053763906561085 -3.5582674296059613  0.4091425488997618   T   T   T
  0.6737604302008600 -3.1493562428403084  0.4081901168615347   T   T   T
  1.1748715627926289 -2.6499113828047376  0.4027421446033719   T   T   T
  0.3571589577679395 -2.6195332888892371  0.4053042228328734   T   T   T
  0.8549211861653508 -3.1133006027756380  0.4042460132445104   T   T   T
  0.4256709720336202 -2.7118774848925504  0.4076980232060852   T   T   T
  0.9257117464565827 -3.2058827421630647  0.4076547577783678   T   T   T
  0.4965056947376486 -2.8025059324492925  0.4037147743932016   T   T   T
  0.9950660577872809 -3.3017195832268098  0.4028475748242317   T   T   T
  0.5655851543244576 -2.8957824895330528  0.4035939250407514   T   T   T
  1.0653202056972593 -3.3952892068316061  0.4035525874372439   T   T   T
  0.4371949804319278 -3.5611138746357591  0.4007993820131134   T   T   T
  0.9356411362455135 -3.0564992431212605  0.4076102537780911   T   T   T
  0.5070244713898517 -2.6519099958402723  0.4103008098333157   T   T   T
  1.0079768529176500 -3.1485294011253528  0.4050505273379112   T   T   T
  0.5773020985452842 -2.7426887436286322  0.4020752950165271   T   T   T
  1.0774643860074715 -3.2422145333764067  0.4027714441798695   T   T   T
  0.6472155164770550 -2.8353122295283866  0.4018686508696592   T   T   T
  1.1460494997581940 -3.3350279920621779  0.4019366174117877   T   T   T
  0.7154446812331191 -2.9291845972192210  0.4061953004183629   T   T   T
  1.2151876712100433 -3.4269241680730769  0.4052015767084297   T   T   T
  0.2859541959618720 -3.5250856062895024  0.4069880765391034   T   T   T
  0.7863235577078084 -3.0215423434861659  0.4067731240886568   T   T   T
  0.4486731949542432 -3.4060730378158146  0.4035963689165383   T   T   T
  0.9489057727674343 -2.9038062658447208  0.4122848438295689   T   T   T
  0.5181275730968503 -3.4992430490193738  0.4105453720203854   T   T   T
  1.0175695802545190 -2.9961140407577922  0.4073165507234984   T   T   T
  0.5872239085111876 -3.5905511929239218  0.4119802141794354   T   T   T
  1.0880467178381499 -3.0950495311639843  0.4085702914612346   T   T   T
  0.6576618048539271 -2.6842396531502812  0.4050246141571563   T   T   T
  1.1583649788473340 -3.1843484854461210  0.4109228735638283   T   T   T
  0.7303814385735290 -2.7794701843477143  0.4064481443882217   T   T   T
  1.2281022251593430 -3.2773202650360513  0.4041515921013859   T   T   T
  0.2942409798371547 -3.3713258811523805  0.3996168058218969   T   T   T
  0.7950717951422139 -2.8743552016624703  0.4033395575178258   T   T   T
  0.3672242649225993 -3.4672428809205762  0.3994457776217604   T   T   T
  0.8660157561525499 -2.9629555953885514  0.4054573799127782   T   T   T
  0.5297590588894976 -3.3479486258927889  0.4101534144597842   T   T   T
  1.0323112306697821 -2.8477524698173031  0.4074353070274868   T   T   T
  0.6009465479979966 -3.4395493554595480  0.4115046798459857   T   T   T
  1.0976701221606073 -2.9409782562654025  0.4059230129697657   T   T   T
  0.6677836296121302 -3.5305636962542759  0.4091194222006159   T   T   T
  1.1684950561233927 -3.0380074930695034  0.4107017330314022   T   T   T
  0.7401843803732193 -2.6236505559656438  0.4055174001672590   T   T   T
  1.2399267977408888 -3.1273789116477526  0.4057339944704682   T   T   T
  0.3095284197271685 -3.2217426631933059  0.4010227134920365   T   T   T
  0.8094911985404681 -2.7198942513999911  0.4036582780302611   T   T   T
  0.3786779485002485 -3.3154260120084005  0.3979618990742966   T   T   T
  0.8789861979641911 -2.8116945785684355  0.4064875938320252   T   T   T
  0.6127829341775017 -3.2882879600326369  0.4069536239887949   T   T   T
  1.1131051802596488 -2.7885312922405556  0.4040765357806837   T   T   T
  0.6823846207946715 -3.3845335014399636  0.4058743122384190   T   T   T
  1.1803425998255737 -2.8851339819305175  0.4053894013463640   T   T   T
  0.7504275512940434 -3.4785911322266316  0.4012119098428069   T   T   T
  1.2516763379151743 -2.9749219153633684  0.4067838210577339   T   T   T
  0.3209521462847681 -3.0673933252364312  0.4029684208229489   T   T   T
  0.8188731358537616 -3.5717658515770130  0.4024902419827391   T   T   T
  0.3911376922902788 -3.1644503953207721  0.4069755257226895   T   T   T
  0.8899792107914434 -2.6614612502067931  0.4058836406558084   T   T   T
  0.4608335011943570 -3.2540507744558900  0.4078914279141812   T   T   T
  0.9615990984190708 -2.7548728679408248  0.4055577393107238   T   T   T
  0.6925618023593609 -3.2322302880812077  0.4103038694771396   T   T   T
  1.1930268450220436 -2.7312545167496705  0.4039782282928135   T   T   T
  0.2633092345496736 -2.8275832759377075  0.4078691640135541   T   T   T
  0.7634843254920231 -3.3291485967316197  0.4051805206298028   T   T   T
  0.3327552093562351 -2.9200765114671237  0.4041975909380977   T   T   T
  0.8332588736521932 -3.4155531815102464  0.4014647380792887   T   T   T
  0.4017501543594259 -3.0146638654483398  0.4036150877965714   T   T   T
  0.9018149007626022 -3.5118992034582845  0.3990211020205290   T   T   T
  0.4733894750452620 -3.1062842061139375  0.4065512881489802   T   T   T
  0.9717345603270462 -2.6052516572762405  0.4004849800345887   T   T   T
  0.5434380908439530 -3.1979460544084723  0.4045793436620370   T   T   T
  1.0407729879130072 -2.6942063225765600  0.4078698582998951   T   T   T
  0.2762093499235972 -2.6741018932520628  0.4036554679577387   T   T   T
  0.7742180448575743 -3.1746146288718489  0.4116956172096379   T   T   T
  0.3444026288047857 -2.7686231797521565  0.4074529664989801   T   T   T
  0.8442227728604492 -3.2650460821656164  0.4020303178111519   T   T   T
  0.4153369265836582 -2.8623380930732272  0.4036796627725377   T   T   T
  0.9133027832441888 -3.3570478353534323  0.3989294097225894   T   T   T
  0.4855491506970219 -2.9554337537107016  0.3995647976328590   T   T   T
  0.9844763917186368 -3.4523717184038722  0.4016858062987746   T   T   T
  0.5548002944237410 -3.0451164249721612  0.4071487946190554   T   T   T
  1.0543414859830420 -3.5458898382499346  0.4068030712156092   T   T   T
  0.6233661369346037 -3.1376455296769419  0.4056718306372261   T   T   T
  1.1252229988740048 -2.6371239931259312  0.4046076518029481   T   T   T
  0.6352664726006448 -2.9915146524840259  0.4082284874379412   T   T   T
  1.1346623504980133 -3.4866663969862022  0.4050956335369447   T   T   T
  0.7060997627451744 -3.0794885962461795  0.4082748460512715   T   T   T
  1.2062652140838015 -3.5791886625181255  0.4060037774494381   T   T   T
  0.1930708880675385  1.6516452840891394  0.2641406797292518   T   T   T
  0.7025290979498687  2.1509982196620943  0.2696480034515787   T   T   T
  0.0529815619315649  1.9348352456234572  0.2642831471620428   T   T   T
  0.5544107756144381  1.4371052590453746  0.2714724886728497   T   T   T
 -0.0134201323149304  1.5755814792644063  0.2655987260788431   T   T   T
  0.4859358717795789  2.0860184078862125  0.2695119787322295   T   T   T
  0.3414371782981355  1.3705741280416448  0.2668820437251959   T   T   T
  0.8412831882460456  1.8706319069901041  0.2627434104451533   T   T   T
  0.2703409306773366  2.0057939732805754  0.2692693654653766   T   T   T
  0.7686608707133282  1.5110646745244753  0.2628128373032828   T   T   T
  0.1235211842603147  1.2942308190882592  0.2634211775033561   T   T   T
  0.6222809024803228  1.8075587928922414  0.2667651429697759   T   T   T
  0.4132869347472997  1.7254391093235795  0.2598001734210638   T   T   T
  0.9079624549603650  2.2400273629304137  0.2594157293808044   T   T   T
 -0.0867804873638079  2.2280149455848521  0.1828635166250195   T   T   T
  0.4155856983475258  1.7270974754435346  0.1859799310736037   T   T   T
  0.1925189036257255  1.6490554958878594  0.1916766207505489   T   T   T
  0.6989892976494653  2.1561722743554341  0.1934726742769881   T   T   T
  0.0524202646782962  1.9441728921542261  0.1884284566387084   T   T   T
  0.5545768058038908  1.4480173471207509  0.1977705701714271   T   T   T
 -0.0184044735571313  1.5751000522166587  0.1929882164323127   T   T   T
  0.4885850955507358  2.0883575337528120  0.1979403403090365   T   T   T
  0.3410329906016852  1.3733477347043659  0.1933827439902764   T   T   T
  0.8364232144498708  1.8669668099216037  0.1878259992174158   T   T   T
  0.2673988010209877  2.0006834847012698  0.1910580618193968   T   T   T
  0.7691531222815571  1.5001044673298896  0.1848959148815806   T   T   T
  0.1341811524530530  1.2968863879199843  0.1913207379644123   T   T   T
  0.6274069917290575  1.8123267648371761  0.1908075150980403   T   T   T
  0.1791386573888993  1.5461286694721934  0.2961756581403599   T   T   T
  0.6854337599833025  2.0312666373877217  0.2907345459180261   T   T   T
  0.0390525320757929  1.8095549866712657  0.2854518539531228   T   T   T
  0.5421442773409930  1.3205045300690283  0.2927086086880643   T   T   T
  0.3942356780964456  1.6137392299440061  0.2836803608088329   T   T   T
  0.8907011039303540  2.1210246329238052  0.2785215460408459   T   T   T
 -0.0274966812495211  1.4597068866422303  0.2906795205638538   T   T   T
  0.4689309258135058  1.9660511113158483  0.2918038745467390   T   T   T
  0.3235327164869222  1.2623142718686686  0.2911119805374562   T   T   T
  0.8267573164013746  1.7468676823616980  0.2829520036144107   T   T   T
  0.2526107100452995  1.8906116215519488  0.2914024771338489   T   T   T
  0.7520448704356599  1.3933530777073215  0.2852335581349764   T   T   T
  0.1128862025795930  2.1719887571112704  0.2849187556074499   T   T   T
  0.6037085029224265  1.6893278343854656  0.2875431030797219   T   T   T
  0.1436790799267239  1.7412683448778019  0.2850558625912961   T   T   T
  0.6509067561346482  1.2363414026423987  0.2869851468175130   T   T   T
  0.0044226516156621  2.0234435533333817  0.2866861570412600   T   T   T
  0.5044846558656576  1.5246847233442828  0.2961861278527490   T   T   T
 -0.0596269956016492  1.6583295825989577  0.2858033277643082   T   T   T
  0.4331248469640758  2.1699076707298341  0.2883760691847099   T   T   T
  0.2938064271134974  1.4607690857195901  0.2916302450939092   T   T   T
  0.7917797213428126  1.9529872602470435  0.2885084893920042   T   T   T
  0.3637124898865155  1.8101343153592873  0.2866190328026199   T   T   T
  0.8687787117276150  1.3315220901986418  0.2833172272029734   T   T   T
  0.2216161821038529  2.0878811352086881  0.2908393587364966   T   T   T
  0.7228096697693817  1.5973620265721895  0.2855234005433003   T   T   T
  0.0767362998407667  1.3744482126192819  0.2887002564034444   T   T   T
  0.5756656694212114  1.8944857297047937  0.2842878195947481   T   T   T
  0.2616487752639782  1.6753742482579603  0.2826089649627676   T   T   T
  0.7712516174742340  2.1881670558439774  0.2883037192379559   T   T   T
  0.1208229081435373  1.9711108393744077  0.2883118738478291   T   T   T
  0.6239802613319833  1.4736758246842414  0.2902170678596792   T   T   T
  0.0566150273973570  1.6112315156518731  0.2829739866664275   T   T   T
  0.5502546947577477  2.1188553542027377  0.2939771528879099   T   T   T
  0.4128125315487699  1.4029713764741092  0.2884122952438067   T   T   T
  0.9057170469029452  1.8998162151639328  0.2871408680522605   T   T   T
  0.3403742147702528  2.0356842642385624  0.2922343314900124   T   T   T
  0.8372243489213271  1.5452825115173037  0.2860789546916284   T   T   T
  0.1938461385808504  1.3222089508090482  0.2885568161862402   T   T   T
  0.6873554279103680  1.8317574160122849  0.2935626887903249   T   T   T
 -0.0218018124411307  1.2628287186553844  0.2737927986433460   T   T   T
  0.4765404096952008  1.7542415890016925  0.2843274517670279   T   T   T
  0.2400444046202805  1.5585727729642633  0.1800214335362025   T   T   T
  0.7502514134494441  2.0697927888629430  0.1797396036840304   T   T   T
  0.0970879385353278  1.8463289554726403  0.1739301700396143   T   T   T
  0.6056053058353739  1.3664369383625286  0.1786255329530355   T   T   T
 -0.0399784224066864  2.1375743704786125  0.1720864950855082   T   T   T
  0.4629346264916933  1.6420368591920775  0.1651815367525694   T   T   T
  0.0329408058512488  1.4932749245975074  0.1726689166641033   T   T   T
  0.5344093011878672  2.0051813248654784  0.1737447766366858   T   T   T
  0.3836004115561560  1.2819151858994231  0.1751896853673253   T   T   T
  0.8826515936255016  1.7790929003572542  0.1712703957481389   T   T   T
  0.3147020082662607  1.9103697653449236  0.1739220697956885   T   T   T
  0.8225964885017751  1.4216708854278794  0.1706028629194882   T   T   T
  0.1849198281589792  2.2121078815937119  0.1826597730042794   T   T   T
  0.6730586912006123  1.7209962974422359  0.1802945023382002   T   T   T
  0.2165412409722623  1.7601111558437121  0.1724304421528917   T   T   T
  0.7195720717928905  1.2737202699038499  0.1762680505201931   T   T   T
  0.0819653373366313  2.0552259058240567  0.1700238090612084   T   T   T
  0.5697309515738042  1.5705803390194042  0.1869794310632799   T   T   T
 -0.0034299490903025  1.6891919841990146  0.1714412460113272   T   T   T
  0.5004488742088524  2.2065236225272984  0.1819811561103907   T   T   T
  0.3685159472959059  1.4852804288269663  0.1746287806329495   T   T   T
  0.8605499020855314  1.9809851348390135  0.1729612090645702   T   T   T
 -0.0533454014565704  1.3355837953917296  0.1598205747952886   T   T   T
  0.4340882985378087  1.8486923086358389  0.1773124473439040   T   T   T
  0.2989465338517088  2.1101346839275621  0.1691917793684202   T   T   T
  0.7885613402028377  1.6181593928367040  0.1716478276868255   T   T   T
  0.1562513420399265  1.4017847370575525  0.1732199442173247   T   T   T
  0.6507086207940759  1.9264207272120146  0.1702669917832795   T   T   T
  0.3475688981893429  1.7067896738250048  0.1678933242827118   T   T   T
  0.8482156946877462  2.1986443439720751  0.1658382648600104   T   T   T
  0.1284650851859664  1.6117522620321421  0.1737593635462241   T   T   T
  0.6350146895255158  2.1305551402740135  0.1713812822617075   T   T   T
 -0.0149717964519560  1.9064235114307300  0.1738027858677595   T   T   T
  0.4898025048356703  1.4235908090805345  0.1739635608165203   T   T   T
 -0.0880072309904715  1.5336081398631698  0.1802528814143559   T   T   T
  0.4193519978925693  2.0709580590429217  0.1747606699735572   T   T   T
  0.2737297617903238  1.3565850635465513  0.1741681618656344   T   T   T
  0.7663998546065613  1.8391560122749713  0.1749767566554345   T   T   T
  0.1999911164185124  1.9752638007683829  0.1749351079598183   T   T   T
  0.7001417815235444  1.4744893975350699  0.1744890558087968   T   T   T
  0.0689120833193798  1.2604594187718132  0.1684565480587044   T   T   T
  0.5624002638622011  1.7772539444078705  0.1727179554555760   T   T   T
  0.1766343632770017  1.8656389422492128  0.2787553367363779   T   T   T
  0.6765565920022845  1.3763806629721942  0.2745647269326172   T   T   T
  0.1067442615491124  1.5177753312343414  0.2810479967291685   T   T   T
  0.6053807249449020  2.0156507088308406  0.2858732139156622   T   T   T
 -0.0425572822140491  1.7912583462794125  0.2720704851995872   T   T   T
  0.4655779083587036  1.2921562295391231  0.2895231037134344   T   T   T
  0.3176466760839328  1.5798191206186551  0.2676185736878261   T   T   T
  0.8164540403584583  2.0845441538340781  0.2681121848657483   T   T   T
  0.3920341862462664  1.9360828774403482  0.2812727504497280   T   T   T
  0.8938763502925352  1.4572861304421503  0.2531273618381382   T   T   T
  0.2504987001226679  1.2191707714926716  0.2784107535996501   T   T   T
  0.7490153339189443  1.7279412978121687  0.2788843540105312   T   T   T
  0.0280427334640728  2.1459102390812141  0.2722910635335145   T   T   T
  0.5274968210888809  1.6503088721734700  0.2795103957377131   T   T   T
  0.2924244436744445  1.7877397435796898  0.2200430603597365   T   T   T
  0.7976671269390115  1.2916380972747756  0.2192989313859564   T   T   T
  0.0771744918561750  1.7183527041853566  0.2176956659862841   T   T   T
  0.5809782787979250  1.2278253131366845  0.2244967746918879   T   T   T
 -0.0634681675341251  2.0116869347691857  0.2241228306845824   T   T   T
  0.4345643463081481  1.5151171864515980  0.2233495616306017   T   T   T
  0.0127678470077935  1.3629604719199804  0.2141242585251557   T   T   T
  0.5075000242512856  1.8639348585075359  0.2228634429459794   T   T   T
  0.3646743729572489  2.1520426435957405  0.2270356745882166   T   T   T
  0.8601151971220452  1.6504286210309220  0.2201936049855859   T   T   T
  0.2231287632623918  1.4368761536922001  0.2298642482404951   T   T   T
  0.7223598527362236  1.9368311531428624  0.2239764408057768   T   T   T
  0.1526965740645159  2.0789208500180307  0.2299472343463261   T   T   T
  0.6509670727828049  1.5831853455232716  0.2277296022420223   T   T   T
 
  0.38771929E-02 -0.34843852E-02  0.00000000E+00
 -0.23129557E-02 -0.25085098E-02  0.12494273E-02
  0.47939976E-02  0.56585081E-02 -0.57661387E-02
  0.37817631E-03 -0.78618920E-02  0.18654607E-02
 -0.26421624E-02  0.51416795E-04  0.25595551E-02
 -0.41039459E-02  0.48898728E-02  0.18871036E-02
  0.12892428E-02  0.42838543E-02  0.14830903E-02
 -0.45680905E-02 -0.98685253E-02 -0.10069286E-01
 -0.52641567E-02 -0.14669035E-02 -0.16387645E-02
 -0.82397322E-02 -0.48543027E-02 -0.61222894E-02
  0.10001698E-01  0.86173924E-02  0.25954254E-02
 -0.22389451E-02 -0.87879837E-03  0.21416116E-02
 -0.21652426E-02  0.13505406E-02  0.29820614E-02
  0.14321331E-02  0.62736623E-02 -0.38950907E-02
 -0.35421983E-02  0.50317976E-02  0.11482945E-01
 -0.25203582E-02 -0.90622041E-03 -0.44619379E-02
  0.55143456E-03 -0.18932109E-02 -0.71416450E-02
 -0.22144590E-02 -0.31801084E-02 -0.14788142E-01
  0.85127800E-02  0.88894807E-02 -0.42879961E-03
  0.26563877E-02 -0.10735011E-01  0.29646563E-03
 -0.76994350E-02  0.35965633E-02 -0.57385771E-02
  0.47428822E-02 -0.10805837E-01 -0.21874905E-02
 -0.60115613E-02 -0.71863723E-02  0.31141788E-02
  0.60138446E-02 -0.17585318E-02  0.22735564E-03
 -0.41921041E-03 -0.13241733E-01  0.19387025E-02
 -0.16558221E-02  0.33620068E-02  0.32246800E-02
 -0.12186425E-02  0.51360534E-02 -0.28970130E-02
  0.28130642E-03 -0.59805971E-02  0.39798530E-04
  0.35740554E-02  0.13590327E-02  0.14129805E-02
  0.35797119E-02  0.70614423E-02 -0.26102688E-03
  0.62670971E-02  0.69145433E-02 -0.17662904E-02
  0.36556322E-02  0.10904155E-03  0.17009987E-02
 -0.75798629E-03 -0.76264869E-04 -0.66885642E-02
  0.81356270E-02 -0.15899859E-02 -0.42232355E-02
 -0.30321853E-02  0.19553328E-04  0.69838091E-02
  0.54836408E-02  0.72427195E-02  0.19407596E-02
  0.59635342E-02  0.19334887E-03 -0.15149024E-02
  0.53718059E-03  0.57201714E-02 -0.58823671E-02
 -0.42214136E-02 -0.87101366E-04 -0.14294524E-02
 -0.30691716E-02  0.77788046E-02 -0.22359642E-02
 -0.65143031E-02  0.23013643E-02 -0.83406011E-02
  0.14686693E-03  0.64434528E-02 -0.13325699E-02
 -0.19997346E-02 -0.61159616E-02  0.83914375E-02
  0.21373523E-02  0.25831914E-02 -0.81743072E-02
 -0.28429947E-02 -0.34340814E-02 -0.85022740E-03
 -0.50117401E-02  0.71199610E-03  0.31918773E-02
  0.14842054E-02 -0.67889752E-02  0.33140330E-02
 -0.13382144E-02  0.25565875E-02  0.82013804E-03
  0.58793207E-02  0.37039415E-02 -0.77049721E-02
 -0.51635270E-02 -0.59200219E-03  0.56238146E-02
  0.30001950E-03 -0.10342939E-02 -0.77424426E-02
  0.49434419E-02 -0.76059671E-02  0.61317995E-03
  0.37764380E-03  0.39225395E-02  0.11558736E-01
  0.49117424E-02 -0.11967827E-01  0.29661488E-02
  0.72698846E-02 -0.79738637E-02 -0.49709501E-03
 -0.40377310E-02 -0.76772158E-02  0.15129194E-02
 -0.26783798E-02 -0.13643503E-01  0.12979855E-02
  0.39990705E-02  0.72400318E-02 -0.49000553E-02
 -0.54109182E-02  0.33384832E-02  0.51212826E-02
 -0.58095302E-04  0.27663243E-02  0.39862460E-02
  0.83473715E-02 -0.37955215E-02 -0.19493175E-02
  0.87191602E-02 -0.34712190E-02  0.15578953E-02
  0.10715164E-02 -0.63484312E-02 -0.58845230E-02
  0.50948120E-02  0.89981783E-03 -0.19687453E-02
 -0.14312597E-02 -0.10455775E-02  0.27724340E-02
  0.18161475E-02 -0.53455029E-03 -0.71700450E-02
  0.80328143E-03 -0.63182860E-02  0.60078104E-02
 -0.29431464E-02  0.58614202E-02  0.13055255E-01
 -0.50717080E-02  0.10308820E-01  0.75081163E-03
  0.48197120E-02 -0.91424404E-02  0.25327122E-02
 -0.20782586E-02 -0.84222467E-02  0.22294584E-03
 -0.19512321E-02  0.31512888E-02 -0.41748965E-03
 -0.39910326E-03  0.70806518E-02  0.27900806E-02
 -0.54202702E-02 -0.71923156E-02  0.29557667E-02
 -0.69839555E-02  0.88579997E-02 -0.13624914E-02
 -0.44167305E-02 -0.56653619E-02  0.69180234E-03
 -0.39341639E-02 -0.44442549E-02  0.10681239E-01
 -0.14973981E-02 -0.38686114E-02  0.93212525E-03
 -0.23925363E-03  0.13854067E-02  0.45355700E-02
 -0.40533644E-03  0.18148016E-02 -0.10649633E-01
  0.37219127E-02  0.12207151E-02  0.35949929E-02
  0.21264841E-02 -0.16855469E-01 -0.53896507E-02
  0.71549771E-02  0.88199767E-03 -0.85069522E-02
 -0.13437767E-02 -0.27515923E-02  0.70792381E-02
  0.37074414E-02 -0.10806429E-01  0.31223173E-02
 -0.14837272E-02  0.10624127E-02  0.43580879E-02
 -0.67221900E-02  0.33803935E-02 -0.37134095E-02
 -0.10356445E-01 -0.11123864E-02  0.11156176E-02
 -0.54557392E-02 -0.81377161E-03 -0.63932564E-02
 -0.75201669E-02 -0.62280952E-02 -0.14369343E-02
  0.60354662E-02  0.57249397E-02  0.35822191E-02
 -0.12016996E-02  0.20027540E-02 -0.10542359E-01
  0.33805640E-02 -0.23123400E-02  0.45245422E-02
  0.49316804E-02  0.33942944E-02 -0.37037912E-02
 -0.11146001E-02  0.78851861E-02 -0.20579734E-02
  0.63655298E-03  0.28927637E-02 -0.22713169E-03
  0.54160504E-02  0.26860918E-02  0.12244438E-02
 -0.48026103E-02  0.16492607E-02 -0.15302053E-02
 -0.48599816E-02 -0.49325955E-04 -0.59737336E-02
 -0.11214131E-01 -0.13079136E-02  0.35771378E-02
 -0.82617993E-02 -0.17117631E-02  0.59315884E-02
 -0.18954056E-02  0.69718159E-02  0.15480041E-02
 -0.34936405E-02  0.54625235E-02  0.14212788E-01
  0.18074785E-02  0.82639688E-02 -0.21003951E-02
  0.13758552E-01 -0.40001050E-02  0.55542139E-02
 -0.68397000E-02  0.58948711E-03  0.20567228E-02
 -0.67431366E-02  0.87146895E-02  0.18106160E-02
 -0.74111764E-02 -0.14959615E-02  0.45137920E-02
  0.74132815E-02  0.78918000E-03  0.27358463E-02
  0.79492458E-03 -0.33708311E-02 -0.60032062E-03
  0.31754368E-02 -0.64500441E-02  0.69829583E-02
  0.30802970E-02  0.17522730E-02 -0.88675232E-02
 -0.96942804E-02 -0.25351883E-02  0.17030016E-02
  0.50934118E-02 -0.11326654E-01 -0.50630707E-02
 -0.92034890E-02 -0.38884011E-02 -0.15866660E-02
 -0.53968181E-02 -0.15328227E-02 -0.43512892E-02
 -0.22196567E-02  0.58064889E-02 -0.49226153E-02
 -0.12725346E-02 -0.35551042E-02  0.54575307E-02
 -0.15927521E-03  0.31291923E-02  0.15887658E-02
  0.23625510E-02 -0.57415724E-02  0.13041277E-02
  0.55278764E-02 -0.42633270E-03 -0.78697393E-02
 -0.21474671E-02 -0.76990153E-03 -0.37632640E-02
 -0.50863999E-02 -0.28894922E-02 -0.35549747E-02
 -0.25849107E-02 -0.68882452E-02 -0.38634559E-03
  0.65404610E-02 -0.11928758E-01 -0.69072846E-03
 -0.29154338E-02 -0.52127320E-04  0.91489596E-03
  0.71656625E-02  0.76559996E-03 -0.30898559E-02
  0.33629834E-02  0.10420620E-01 -0.26455700E-02
  0.11616150E-02 -0.62683563E-02 -0.48524243E-02
  0.29874071E-02 -0.89987983E-02  0.34466193E-02
 -0.93702908E-03  0.50108075E-03  0.42315348E-02
 -0.70636833E-03  0.20932820E-02 -0.82343032E-03
 -0.49975121E-02 -0.59844213E-03 -0.33686049E-02
 -0.71121838E-02  0.39351148E-02  0.53234935E-02
 -0.41492520E-02 -0.54832479E-02 -0.32844153E-04
 -0.14716978E-02  0.12854689E-02 -0.27492102E-02
  0.96380239E-03 -0.31787029E-02  0.23313979E-02
 -0.37474081E-02  0.38787458E-02 -0.36145415E-02
 -0.42455487E-02  0.56142215E-02  0.80040607E-02
  0.33561325E-02  0.41632298E-02 -0.89135181E-02