 C                                      
   1.00000000000000     
    14.0016529999999992    8.0838260000000002    0.0000000000000000
     0.0000000000000000   16.1677000000000000    0.0000000000000000
     0.0000000000000000    0.0000000000000000   30.0000000000000000
   C 
    86
Direct
  0.0222873576160296  0.1391585714002943  0.4018072141149602
  0.1853313199630833  0.1180710820946658  0.4018314017303481
  0.3484250922610315  0.0926543528360995  0.4017777462551351
  0.5116738743148943  0.0689323779771200  0.4042823159297484
  0.6756804552182984  0.0462434031524950  0.4039329936087341
  0.8385626170341283  0.0222799821413773  0.4018065351874540
  0.9995316445796902  0.0006970306140630  0.4030950000000004
  0.0462534436785305  0.2780669427455393  0.4039308080289885
  0.2102768813291078  0.2554350216530423  0.4041110346019110
  0.3722855449034199  0.2332226838754536  0.4018155273620323
  0.5342913832591876  0.2102721127699638  0.4041111879988151
  0.6965962114179831  0.1853321939876622  0.4018313893427745
  0.8608569441461924  0.1615260627970514  0.4019190298461268
  0.0689354178555490  0.4193965915028599  0.4042814352842043
  0.2332304419700577  0.3944864312775209  0.4018150544353176
  0.3944903839066214  0.3722795825950058  0.4018153662742847
  0.5589197201455534  0.3484251757631256  0.4017777054529930
  0.7209606318446049  0.3246623301965883  0.4043605971954847
  0.8818299559900282  0.3034585343074099  0.4018204388480129
  0.0926551750682663  0.5589199039590511  0.4017777168679046
  0.2554377277909268  0.5342887852944074  0.4041113810932515
  0.4193956780926271  0.5116672243250591  0.4042827300505678
  0.5801533822466496  0.4889681989905270  0.4043535695114500
  0.7440125839414904  0.4657269064230221  0.4043213778117902
  0.9073393543899968  0.4408417533967537  0.4018685431636584
  0.1180707968118853  0.6965981897954308  0.4018314644457917
  0.2780689010884529  0.6756804814173307  0.4039326879058720
  0.4408417120982406  0.6518183076717250  0.4018685286276380
  0.6054347098043777  0.6277889224792901  0.4018084495914209
  0.7667760478970891  0.6054327097158136  0.4018082128278095
  0.9308743210910251  0.5801502104212801  0.4043493004159870
  0.1391346838749499  0.8385836605471297  0.4018070474929516
  0.3034583669877122  0.8147118066131114  0.4018205254874090
  0.4657303845509659  0.7902565768554481  0.4043204980898238
  0.6277924665529326  0.7667723871313257  0.4018084787934839
  0.7902666153856615  0.7440060545212859  0.4043203156728765
  0.9543908955273324  0.7209569548839525  0.4043671210022097
  0.1615019444978714  0.9776113586908295  0.4019189618003551
  0.3246566642920428  0.9543795257036649  0.4043646109719390
  0.4889756402251919  0.9308752278990085  0.4043498618961507
  0.6518184162441756  0.9073399351939173  0.4018685541086668
  0.8147131689038858  0.8818294539997495  0.4018206041991803
  0.9776179432413201  0.8608874580315700  0.4019206529353241
  0.1230366915945424  0.0779202458401400  0.4041085376398783
  0.2870889953885367  0.0552572784802123  0.4039177442946738
  0.4515153914631540  0.0298448153323250  0.4018268459814323
  0.6123816190882678  0.0086739580320412  0.4043722929980476
  0.1479993604945946  0.2152651099091827  0.4018324548805197
  0.3110487922928655  0.1941875958774517  0.4017966503643606
  0.4724651869268115  0.1718205002340625  0.4019251609170809
  0.6367364449794692  0.1479982093932719  0.4018324410954222
  0.7990422278979139  0.1230518980136139  0.4041094662159708
  0.9610212210841880  0.1001662948680320  0.4017797770944256
  0.0086777121846069  0.3789425069807919  0.4043774238066291
  0.1718246458008110  0.3557152189406665  0.4019236979541319
  0.3333547569685820  0.3332865306965971  0.4041362450953230
  0.4947630602963642  0.3110486037502795  0.4017969066773404
  0.6576498219989233  0.2870937179055346  0.4039169236600628
  0.8216783699780308  0.2643802444196481  0.4043020050537294
  0.9849148257227185  0.2406745783062405  0.4017815436622811
  0.0298443845894738  0.5186406680667019  0.4018267921055880
  0.1941898201022809  0.4947615927424991  0.4017964340908833
  0.3557154960130688  0.4724593940428079  0.4019245187239306
  0.5186401302334289  0.4515146096506726  0.4018269540786434
  0.6815295920309623  0.4259939847622931  0.4018760090082907
  0.8443845003072568  0.4021446600817882  0.4039289965826995
  0.0552589025028354  0.6576535360939459  0.4039172643133426
  0.2152660998726574  0.6367350136885221  0.4018324199648902
  0.3789398339412529  0.6123831790436256  0.4043775552747420
  0.5430602137418390  0.5893605493654164  0.4043660827187310
  0.7055467243971023  0.5665518792596416  0.4018113298121904
  0.8675639577083629  0.5430578140002211  0.4043661964204972
  0.0779058608701959  0.7990455047794498  0.4041090965700604
  0.2406744796200044  0.7744125287504389  0.4017815416517578
  0.4021499428383706  0.7534622447293700  0.4039288045986282
  0.5665517594447920  0.7279011142756673  0.4018125432977939
  0.7279043677482449  0.7055448374310629  0.4018116571822006
  0.8924782473395467  0.6815267541548309  0.4018761422575210
  0.1000664964144775  0.9388858199403387  0.4017819887141130
  0.2643815462217205  0.9139396232198678  0.4042990568811007
  0.4259954429140578  0.8924760527519595  0.4018760391876270
  0.5893843059111390  0.8675591896587633  0.4043658523494358
  0.7534655526659293  0.8443916854172215  0.4039299362747855
  0.9139407860001612  0.8216807155340504  0.4043029424916114
  0.7744102633013057  0.9849136635657061  0.4017815187585896
  0.9388260674301634  0.9610840201246731  0.4017806549712688
 
  0.00000000E+00  0.00000000E+00  0.00000000E+00
  0.00000000E+00  0.00000000E+00  0.00000000E+00
  0.00000000E+00  0.00000000E+00  0.00000000E+00
  0.00000000E+00  0.00000000E+00  0.00000000E+00
  0.00000000E+00  0.00000000E+00  0.00000000E+00
  0.00000000E+00  0.00000000E+00  0.00000000E+00
  0.00000000E+00  0.00000000E+00  0.00000000E+00
  0.00000000E+00  0.00000000E+00  0.00000000E+00
  0.00000000E+00  0.00000000E+00  0.00000000E+00
  0.00000000E+00  0.00000000E+00  0.00000000E+00
  0.00000000E+00  0.00000000E+00  0.00000000E+00
  0.00000000E+00  0.00000000E+00  0.00000000E+00
  0.00000000E+00  0.00000000E+00  0.00000000E+00
  0.00000000E+00  0.00000000E+00  0.00000000E+00
  0.00000000E+00  0.00000000E+00  0.00000000E+00
  0.00000000E+00  0.00000000E+00  0.00000000E+00
  0.00000000E+00  0.00000000E+00  0.00000000E+00
  0.00000000E+00  0.00000000E+00  0.00000000E+00
  0.00000000E+00  0.00000000E+00  0.00000000E+00
  0.00000000E+00  0.00000000E+00  0.00000000E+00
  0.00000000E+00  0.00000000E+00  0.00000000E+00
  0.00000000E+00  0.00000000E+00  0.00000000E+00
  0.00000000E+00  0.00000000E+00  0.00000000E+00
  0.00000000E+00  0.00000000E+00  0.00000000E+00
  0.00000000E+00  0.00000000E+00  0.00000000E+00
  0.00000000E+00  0.00000000E+00  0.00000000E+00
  0.00000000E+00  0.00000000E+00  0.00000000E+00
  0.00000000E+00  0.00000000E+00  0.00000000E+00
  0.00000000E+00  0.00000000E+00  0.00000000E+00
  0.00000000E+00  0.00000000E+00  0.00000000E+00
  0.00000000E+00  0.00000000E+00  0.00000000E+00
  0.00000000E+00  0.00000000E+00  0.00000000E+00
  0.00000000E+00  0.00000000E+00  0.00000000E+00
  0.00000000E+00  0.00000000E+00  0.00000000E+00
  0.00000000E+00  0.00000000E+00  0.00000000E+00
  0.00000000E+00  0.00000000E+00  0.00000000E+00
  0.00000000E+00  0.00000000E+00  0.00000000E+00
  0.00000000E+00  0.00000000E+00  0.00000000E+00
  0.00000000E+00  0.00000000E+00  0.00000000E+00
  0.00000000E+00  0.00000000E+00  0.00000000E+00
  0.00000000E+00  0.00000000E+00  0.00000000E+00
  0.00000000E+00  0.00000000E+00  0.00000000E+00
  0.00000000E+00  0.00000000E+00  0.00000000E+00
  0.00000000E+00  0.00000000E+00  0.00000000E+00
  0.00000000E+00  0.00000000E+00  0.00000000E+00
  0.00000000E+00  0.00000000E+00  0.00000000E+00
  0.00000000E+00  0.00000000E+00  0.00000000E+00
  0.00000000E+00  0.00000000E+00  0.00000000E+00
  0.00000000E+00  0.00000000E+00  0.00000000E+00
  0.00000000E+00  0.00000000E+00  0.00000000E+00
  0.00000000E+00  0.00000000E+00  0.00000000E+00
  0.00000000E+00  0.00000000E+00  0.00000000E+00
  0.00000000E+00  0.00000000E+00  0.00000000E+00
  0.00000000E+00  0.00000000E+00  0.00000000E+00
  0.00000000E+00  0.00000000E+00  0.00000000E+00
  0.00000000E+00  0.00000000E+00  0.00000000E+00
  0.00000000E+00  0.00000000E+00  0.00000000E+00
  0.00000000E+00  0.00000000E+00  0.00000000E+00
  0.00000000E+00  0.00000000E+00  0.00000000E+00
  0.00000000E+00  0.00000000E+00  0.00000000E+00
  0.00000000E+00  0.00000000E+00  0.00000000E+00
  0.00000000E+00  0.00000000E+00  0.00000000E+00
  0.00000000E+00  0.00000000E+00  0.00000000E+00
  0.00000000E+00  0.00000000E+00  0.00000000E+00
  0.00000000E+00  0.00000000E+00  0.00000000E+00
  0.00000000E+00  0.00000000E+00  0.00000000E+00
  0.00000000E+00  0.00000000E+00  0.00000000E+00
  0.00000000E+00  0.00000000E+00  0.00000000E+00
  0.00000000E+00  0.00000000E+00  0.00000000E+00
  0.00000000E+00  0.00000000E+00  0.00000000E+00
  0.00000000E+00  0.00000000E+00  0.00000000E+00
  0.00000000E+00  0.00000000E+00  0.00000000E+00
  0.00000000E+00  0.00000000E+00  0.00000000E+00
  0.00000000E+00  0.00000000E+00  0.00000000E+00
  0.00000000E+00  0.00000000E+00  0.00000000E+00
  0.00000000E+00  0.00000000E+00  0.00000000E+00
  0.00000000E+00  0.00000000E+00  0.00000000E+00
  0.00000000E+00  0.00000000E+00  0.00000000E+00
  0.00000000E+00  0.00000000E+00  0.00000000E+00
  0.00000000E+00  0.00000000E+00  0.00000000E+00
  0.00000000E+00  0.00000000E+00  0.00000000E+00
  0.00000000E+00  0.00000000E+00  0.00000000E+00
  0.00000000E+00  0.00000000E+00  0.00000000E+00
  0.00000000E+00  0.00000000E+00  0.00000000E+00
  0.00000000E+00  0.00000000E+00  0.00000000E+00
  0.00000000E+00  0.00000000E+00  0.00000000E+00
