largec3                                 
    1.000000000000000     
    28.0032999999999994    0.0000000000000000    0.0000000000000000
     0.0000000000000000   16.1677000000000000    0.0000000000000000
     0.0000000000000000    0.0000000000000000   30.0000000000000000
   C    P    S    Cu   In
   172    28    84    14    14
Selective dynamics
Direct
  0.0815327012225353  0.0605823764755584  0.4017633722137504   T   T   T
  0.5815341213507637  0.5605824295896511  0.4017643734881560   T   T   T
  0.1529000487550718  0.9662160456094213  0.4018466336450786   T   T   T
  0.6529002539713602  0.4662156941707210  0.4018466062353738   T   T   T
  0.2219836471656365  0.8721596974445092  0.4018041779331725   T   T   T
  0.7219836882826201  0.3721596022553157  0.4018041739975757   T   T   T
  0.2908947345247697  0.7779156237888714  0.4018398113051305   T   T   T
  0.7908945525845681  0.2779156698912360  0.4018397893313477   T   T   T
  0.3596814917407727  0.6835451488592312  0.4044320928961014   T   T   T
  0.8596816026336569  0.1835450314647176  0.4044316450527532   T   T   T
  0.4283049865618906  0.5906272939765529  0.4018705320717757   T   T   T
  0.9283048878353455  0.0906275012784263  0.4018709604450379   T   T   T
  0.4991462179956159  0.5006500726490515  0.4023537538498871   T   T   T
  0.9991444453728988  0.0006522577372010  0.4023545790998924   T   T   T
  0.1629385162924351  0.1165514636127156  0.4018616781360507   T   T   T
  0.6629389355281816  0.6165515282887242  0.4018619772930379   T   T   T
  0.2340570050113158  0.0228578896939382  0.4017892273242225   T   T   T
  0.7340571897778929  0.5228579494856760  0.4017891578405681   T   T   T
  0.3031768758612401  0.9316795315227324  0.4017569568036023   T   T   T
  0.8031773309037646  0.4316794886755631  0.4017567051394479   T   T   T
  0.3720446566572377  0.8387447898736866  0.4041021282016999   T   T   T
  0.8720445992897865  0.3387443510796118  0.4041016249274421   T   T   T
  0.4408074570911751  0.7442243013269447  0.4018855818865035   T   T   T
  0.9408068249607737  0.2442250641752111  0.4018852291539687   T   T   T
  0.0096926254175784  0.1536800871788131  0.4018680090601876   T   T   T
  0.5096926396529327  0.6536802560663517  0.4018679424544800   T   T   T
  0.2438137529094959  0.1750192210771928  0.4045796054515094   T   T   T
  0.7438137175410660  0.6750189730506335  0.4045798366814211   T   T   T
  0.3130865137226806  0.0829790501910423  0.4017885720273853   T   T   T
  0.8130868600642955  0.5829790941969080  0.4017884864165850   T   T   T
  0.3842908255578621  0.9896861112181412  0.4018641209624008   T   T   T
  0.8842894166148980  0.4896843310976564  0.4018648346322991   T   T   T
  0.4531653253367338  0.8947637044342827  0.4018049097373506   T   T   T
  0.9531645749844273  0.3947627879729936  0.4018049413019398   T   T   T
  0.0220987851097050  0.3051396267737587  0.4043507113000402   T   T   T
  0.5221004030473253  0.8051447426117662  0.4043572883278301   T   T   T
  0.0909445388296675  0.2102769131392535  0.4017696417475207   T   T   T
  0.5909450368675380  0.7102749026649278  0.4017689565583922   T   T   T
  0.3276693675100120  0.2330916869004085  0.4018050732476723   T   T   T
  0.8276693526466801  0.7330903620242424  0.4018060378695267   T   T   T
  0.3957578028489053  0.1404502374010903  0.4029640386621054   T   T   T
  0.8957574232983561  0.6404485914819134  0.4029647914353802   T   T   T
  0.4654485788149216  0.0496073354507445  0.4046136204556348   T   T   T
  0.9654466324237703  0.5496064333422055  0.4046140967498104   T   T   T
  0.0341689428769740  0.4549429018296607  0.4017786292535348   T   T   T
  0.5341692245419551  0.9549466154001962  0.4017745190750190   T   T   T
  0.1033989813634193  0.3610746206981119  0.4040978589231230   T   T   T
  0.6033988177428071  0.8610754658725241  0.4040976540545103   T   T   T
  0.1722602547914960  0.2670794512400789  0.4019207135638041   T   T   T
  0.6722602397677520  0.7670784401817343  0.4019208549763675   T   T   T
  0.4090513788571428  0.2895138499848358  0.4017716298239407   T   T   T
  0.9090513738640382  0.7895154992649367  0.4017719537210098   T   T   T
  0.4781331437781304  0.1984539349859702  0.4019187856749866   T   T   T
  0.9781296437396634  0.6984577238883176  0.4019291213311575   T   T   T
  0.0469011426928532  0.6054191531348394  0.4018315138952602   T   T   T
  0.5469019491717120  0.1054179800248676  0.4018321264785527   T   T   T
  0.1153953100511629  0.5113237546906575  0.4017757499929075   T   T   T
  0.6153937503663087  0.0113254030696126  0.4017748471427112   T   T   T
  0.1845196063345469  0.4204603029330798  0.4018729608399880   T   T   T
  0.6845184622626164  0.9204603912593896  0.4018724037842532   T   T   T
  0.2543948836626839  0.3262321698878523  0.4030136179065664   T   T   T
  0.7543944840143197  0.8262310504421393  0.4030136422205217   T   T   T
  0.4882803996676230  0.3498659902981061  0.4017776625475520   T   T   T
  0.9882806743953125  0.8498658165853428  0.4017775398223975   T   T   T
  0.0595938637787370  0.7558999731952838  0.4019108922445227   T   T   T
  0.5595944068589063  0.2558970194930978  0.4019091500271230   T   T   T
  0.1283857766130936  0.6613279897402862  0.4043867471294718   T   T   T
  0.6283858726923626  0.1613296376142443  0.4043854414973396   T   T   T
  0.1969890847570852  0.5683802354079859  0.4018801495973463   T   T   T
  0.6969871479023624  0.0683805739245074  0.4018792407726366   T   T   T
  0.2660113571476614  0.4762078905367773  0.4017821441445122   T   T   T
  0.7660112293081411  0.9762078621876213  0.4017824499828180   T   T   T
  0.3371643981770021  0.3830732765871971  0.4017871459261073   T   T   T
  0.8371645978568267  0.8830734660253086  0.4017871478096140   T   T   T
  0.0715798606139586  0.9094593238068640  0.4018758050858935   T   T   T
  0.5715801327714871  0.4094587058788406  0.4018756121159157   T   T   T
  0.1407859269783458  0.8162642106817088  0.4045974579904552   T   T   T
  0.6407865820317866  0.3162619206581851  0.4045952403721316   T   T   T
  0.2092852260675713  0.7181645946427224  0.4042072354846127   T   T   T
  0.7092834978227387  0.2181649326075572  0.4042063788001826   T   T   T
  0.2783463423536929  0.6275290821266069  0.4046529298191857   T   T   T
  0.7783461599639026  0.1275293236786155  0.4046532592709369   T   T   T
  0.3471501624385667  0.5331085111591634  0.4017776045615236   T   T   T
  0.8471501255301703  0.0331084254890754  0.4017775225898603   T   T   T
  0.4181159312877512  0.4394284515073110  0.4017808270681869   T   T   T
  0.9181162604805095  0.9394282636868994  0.4017805044109650   T   T   T
  0.1027674255280857  0.9783505524089975  0.4017854342277829   T   T   T
  0.6027661155998061  0.4783503817891557  0.4017854923456312   T   T   T
  0.1717605821194823  0.8836355422237361  0.4043298834731530   T   T   T
  0.6717591509474801  0.3836344749616742  0.4043307658109114   T   T   T
  0.2407712728465228  0.7891514023362731  0.4018283609866913   T   T   T
  0.7407710135329921  0.2891513799530969  0.4018282837030256   T   T   T
  0.3095770116636771  0.6948108913255950  0.4046712260224083   T   T   T
  0.8095767245997365  0.1948112203168009  0.4046709710679650   T   T   T
  0.1839680047690990  0.0348773323567215  0.4017801773593419   T   T   T
  0.6839678521264503  0.5348782282153124  0.4017802263005734   T   T   T
  0.2530240299915576  0.9427140773219236  0.4017372658446732   T   T   T
  0.7530240727406365  0.4427139033060143  0.4017371954758531   T   T   T
  0.3217914306430316  0.8499052231949165  0.4018135441011665   T   T   T
  0.8217915478850060  0.3499054232949916  0.4018134573134731   T   T   T
  0.3904159676493038  0.7555581320342100  0.4018820870567126   T   T   T
  0.8904161025749957  0.2555587551847438  0.4018819833361249   T   T   T
  0.4591914017178311  0.6613606057067685  0.4041143695513583   T   T   T
  0.9591920250639987  0.1613609015710153  0.4041136465116537   T   T   T
  0.0307035837748373  0.0720572671543351  0.4017960392856068   T   T   T
  0.5307041911690575  0.5720573492038667  0.4017959481258444   T   T   T
  0.1935686460972050  0.1861202821513075  0.4044360076075719   T   T   T
  0.6935684980958499  0.6861206140117702  0.4044366826642403   T   T   T
  0.2630469053081086  0.0943350736779891  0.4018793518793515   T   T   T
  0.7630469092221546  0.5943354791997209  0.4018793510883896   T   T   T
  0.3340686897863634  0.0007650103116319  0.4017751512729433   T   T   T
  0.8340687813493233  0.5007647406336844  0.4017753465670708   T   T   T
  0.4030678428185865  0.9092784879615010  0.4018779591407764   T   T   T
  0.9030671041298746  0.4092786911774340  0.4018782347962926   T   T   T
  0.4717240952238484  0.8157013608760479  0.4041903524621659   T   T   T
  0.9717234652249900  0.3156994343639923  0.4041897268237875   T   T   T
  0.0408140980365062  0.2225844469514797  0.4018530777520226   T   T   T
  0.5408137367262071  0.7225878953022331  0.4018526096696107   T   T   T
  0.1121576415054690  0.1281825769348117  0.4017659030749456   T   T   T
  0.6121585781472945  0.6281833491418354  0.4017661759542932   T   T   T
  0.2751918075935720  0.2449251091777285  0.4032460053860092   T   T   T
  0.7751906995756173  0.7449218044085910  0.4032461741617368   T   T   T
  0.3444743805317003  0.1503853614107555  0.4018154062448360   T   T   T
  0.8444734325611094  0.6503848422816745  0.4018163301559809   T   T   T
  0.4153081933717715  0.0608464294458670  0.4045583936214285   T   T   T
  0.9153072099066648  0.5608455106579200  0.4045577609815112   T   T   T
  0.4841078598468300  0.9666109125516016  0.4018331102485604   T   T   T
  0.9841073013136992  0.4666096102962314  0.4018340931963564   T   T   T
  0.0531167684291134  0.3723719029939687  0.4018358728819607   T   T   T
  0.5531165561762137  0.8723728688604098  0.4018356151240638   T   T   T
  0.1220833641848813  0.2785412759674060  0.4018468081347919   T   T   T
  0.6220837737145501  0.7785389828924068  0.4018462727349785   T   T   T
  0.3589035963232305  0.3014513972355601  0.4017831375297831   T   T   T
  0.8589034443913874  0.8014512980897024  0.4017841505072113   T   T   T
  0.4278878006594837  0.2095500698206720  0.4018310729505643   T   T   T
  0.9278872775090292  0.7095514970524519  0.4018336344449551   T   T   T
  0.4967161349703630  0.1168503684532922  0.4044016058409312   T   T   T
  0.9967086144436763  0.6168491167540395  0.4044220271351620   T   T   T
  0.0654082773948730  0.5230023331629283  0.4017827336167912   T   T   T
  0.5654077940604338  0.0230087802422148  0.4017826602064787   T   T   T
  0.1343272733336320  0.4315315892557763  0.4018841080643014   T   T   T
  0.6343256958626995  0.9315321661574387  0.4018833702342235   T   T   T
  0.2032892039504546  0.3386059342489744  0.4042027258534802   T   T   T
  0.7032885688375714  0.8386057407883101  0.4042021020326985   T   T   T
  0.4380921457518454  0.3608439789662157  0.4017871886917916   T   T   T
  0.9380922556613100  0.8608439907603014  0.4017868524171391   T   T   T
  0.0090968885268978  0.7674949256878918  0.4017578547754326   T   T   T
  0.5090970640733801  0.2674945786386544  0.4017549061205372   T   T   T
  0.0780801487224991  0.6727902810898883  0.4042065990837216   T   T   T
  0.5780726370040199  0.1727838866781823  0.4042077321928303   T   T   T
  0.1468808066964300  0.5795053671101300  0.4018903425649967   T   T   T
  0.6468777097691643  0.0795063862657059  0.4018849411591887   T   T   T
  0.2158920553845789  0.4884882199712735  0.4017789458885233   T   T   T
  0.7158918477201794  0.9884883419423645  0.4017791428339663   T   T   T
  0.2868569190862971  0.3945273637442384  0.4018057254703891   T   T   T
  0.7868569761210225  0.8945272143685656  0.4018057503994967   T   T   T
  0.0202585061784220  0.9192785606554708  0.4017972064162052   T   T   T
  0.5202584822113039  0.4192786551252112  0.4017971966788991   T   T   T
  0.0903421135289975  0.8276018252310422  0.4044507822071850   T   T   T
  0.5903416135290911  0.3275993684737841  0.4044427916105491   T   T   T
  0.1591398470702003  0.7328198392525920  0.4020140882441936   T   T   T
  0.6591394767386802  0.2328157772126787  0.4020156495312222   T   T   T
  0.2279117871990195  0.6386651623591391  0.4046302204366299   T   T   T
  0.7279116996643680  0.1386649032650595  0.4046299227392254   T   T   T
  0.2970444060460764  0.5449867509673680  0.4018489113668622   T   T   T
  0.7970447159890099  0.0449867727716295  0.4018491502058623   T   T   T
  0.3672544118567416  0.4524088610133816  0.4017719422032897   T   T   T
  0.8672546751819326  0.9524086984259768  0.4017717590280157   T   T   T
  0.3781941814271903  0.6017283570883407  0.4019036415373094   T   T   T
  0.8781942737734525  0.1017284573871109  0.4019035585579545   T   T   T
  0.4473266220288465  0.5106547050372328  0.4017953578193385   T   T   T
  0.9473267091934758  0.0106538621327417  0.4017955484681224   T   T   T
  0.2869798555341561  0.4308286751031858  0.2654285111250374   T   T   T
  0.7871696364504430  0.9307903243585329  0.2653986117153195   T   T   T
  0.1412580730400634  0.7125172946964824  0.2664410398735981   T   T   T
  0.6418448816741744  0.2126801244916621  0.2652061147838154   T   T   T
  0.0713461155220259  0.3548193638807859  0.2666586331079515   T   T   T
  0.5691909475683801  0.8564634005022498  0.2651483642728252   T   T   T
  0.4290039176380631  0.1443124151712709  0.2618007325906362   T   T   T
  0.9260012528133004  0.6435852985372250  0.2651616539619255   T   T   T
  0.3592128665009469  0.7878734242086693  0.2670107580286754   T   T   T
  0.8594156035912164  0.2881355145869051  0.2669733888286672   T   T   T
  0.2153608868496377  0.0671751084542151  0.2634727887140116   T   T   T
  0.7151932220251993  0.5675250504447362  0.2638754758588675   T   T   T
  0.4995429205395112  0.5000958387509158  0.2629843565570837   T   T   T
  0.9987446616354632  0.9993111137108386  0.2625366738311143   T   T   T
  0.0002082475468512  0.9993066011139788  0.1875639864115186   T   T   T
  0.5003864429075549  0.4994191629225497  0.1878199040759867   T   T   T
  0.2849312095622309  0.4317590041414121  0.1901453912612396   T   T   T
  0.7847665208942374  0.9316269261829433  0.1901183598474816   T   T   T
  0.1412223266579886  0.7103016261617157  0.1907340055297126   T   T   T
  0.6451453228753010  0.2115924978930082  0.1901287927053019   T   T   T
  0.0725269917482834  0.3544432943439020  0.1907945230585568   T   T   T
  0.5718061257856490  0.8549710894591556  0.1900714411289925   T   T   T
  0.4279217963316526  0.1433487669370024  0.1858730063839431   T   T   T
  0.9282864436068081  0.6423109800259468  0.1901402573375464   T   T   T
  0.3573210465566845  0.7875817616279548  0.1912529444945932   T   T   T
  0.8574809662046974  0.2877562882029068  0.1912675780501161   T   T   T
  0.2179643503364588  0.0684250900160350  0.1889561213709783   T   T   T
  0.7170533644137294  0.5725033336385295  0.1896060867275224   T   T   T
  0.2676437728339849  0.3123571772334159  0.2855417333974941   T   T   T
  0.7673749075137408  0.8126070864357118  0.2857388420837808   T   T   T
  0.1247790319120057  0.5939108614866910  0.2860042837699979   T   T   T
  0.6189384451107927  0.0997088800174524  0.2826942201523153   T   T   T
  0.4725594656310435  0.3882688411315769  0.2799071401545348   T   T   T
  0.9749474202838400  0.8857381012306789  0.2798278912109922   T   T   T
  0.0480705134429513  0.2432240087838693  0.2857758115753271   T   T   T
  0.5478779332636776  0.7437634769378931  0.2852904264883733   T   T   T
  0.4104179207891221  0.0276111555707743  0.2855007343266038   T   T   T
  0.9105722173648587  0.5235035218027804  0.2858935535099647   T   T   T
  0.3377297470068470  0.6705499099836132  0.2866430822382142   T   T   T
  0.8377610571848493  0.1709584373961945  0.2864745779859277   T   T   T
  0.1914660219491822  0.9550049638927050  0.2806017267317529   T   T   T
  0.6914467405361719  0.4551692734478152  0.2804877097754215   T   T   T
  0.2352696453662872  0.5130209510381789  0.2857681672671148   T   T   T
  0.7366960352212288  0.0154449349740489  0.2862501291979953   T   T   T
  0.0962850397807813  0.8016033348358533  0.2861969326401450   T   T   T
  0.6000053354925043  0.3100909756518391  0.2825897951358272   T   T   T
  0.0223670906968891  0.4437631602579373  0.2857878472232969   T   T   T
  0.5257662450726528  0.9514945196320923  0.2804434571285412   T   T   T
  0.3837766799479496  0.2342542172676687  0.2801257081387831   T   T   T
  0.8811261435424385  0.7332615622744356  0.2838302630833880   T   T   T
  0.4563066288835742  0.5948552703377885  0.2798943413029704   T   T   T
  0.9541460005866043  0.0910999859600068  0.2802039691180624   T   T   T
  0.3073380923461144  0.8721202404252963  0.2864902396091793   T   T   T
  0.8071754620581331  0.3720270348314401  0.2863690128288994   T   T   T
  0.1670800283951266  0.1564265840322534  0.2856877847958827   T   T   T
  0.6669472161062515  0.6566007465586452  0.2859201967156437   T   T   T
  0.3537776958198648  0.4547977851590659  0.2858278791619639   T   T   T
  0.8538690409912704  0.9546133097483960  0.2858092885929295   T   T   T
  0.2093491402498273  0.7447438491586880  0.2861516606256558   T   T   T
  0.7097398028008683  0.2453079281849995  0.2858407866221881   T   T   T
  0.1393289110589393  0.3892218323858998  0.2861404532095833   T   T   T
  0.6384416825771382  0.8882783259599591  0.2853551664842939   T   T   T
  0.4979940449752647  0.1568329295595774  0.2799996220794299   T   T   T
  0.9944733153117227  0.6719089492361405  0.2865877724263441   T   T   T
  0.4267635875613536  0.8105602511735128  0.2859814914482470   T   T   T
  0.9268236466732276  0.3113172321968918  0.2854440259708824   T   T   T
  0.2828297201230754  0.1010899757836228  0.2859034005575509   T   T   T
  0.7828146139726613  0.6012156945122555  0.2858993220533961   T   T   T
  0.0673855669484809  0.0208171327662967  0.2800696210434381   T   T   T
  0.5688281550589025  0.5172438646736666  0.2798800151782288   T   T   T
  0.3285650010752050  0.3346092778878855  0.1676901246332179   T   T   T
  0.8285750701404453  0.8347513648761122  0.1677780550682328   T   T   T
  0.1898190692844040  0.6234202416763068  0.1726077088278259   T   T   T
  0.6911655910287777  0.1223211687340893  0.1722623967321582   T   T   T
  0.0420902237890957  0.9013419047200770  0.1666500549146832   T   T   T
  0.5418260083988926  0.4011244241248733  0.1670780674890864   T   T   T
  0.1182308470661795  0.2638854353727993  0.1731965437258722   T   T   T
  0.6170297752872642  0.7652214094534884  0.1725082478005149   T   T   T
  0.4712199572145011  0.0454336738389358  0.1667677388347002   T   T   T
  0.9768199132469988  0.5552251036222771  0.1731086568153515   T   T   T
  0.3995327824603692  0.6891411608022082  0.1701969404561368   T   T   T
  0.8993653777157107  0.1889562592302170  0.1700803947315634   T   T   T
  0.2644979099500375  0.9783037656882314  0.1722342478366983   T   T   T
  0.7629520859018157  0.4821723175027159  0.1720588899583575   T   T   T
  0.3086340136486783  0.5444211720705638  0.1726400762757478   T   T   T
  0.8085247425711657  0.0443905570488639  0.1725541635126504   T   T   T
  0.1681310090287269  0.8236030660830593  0.1695553541320365   T   T   T
  0.6689974480617025  0.3255138466879970  0.1671942201137213   T   T   T
  0.0911974301945833  0.4691883942702333  0.1721607769006965   T   T   T
  0.5971605241029465  0.9677505237973136  0.1673657112483724   T   T   T
  0.4583918903100042  0.2550305576699614  0.1671273852962116   T   T   T
  0.9563786261678757  0.7549504581025985  0.1700042069482279   T   T   T
  0.0282678985824987  0.1106620360799155  0.1665196857695932   T   T   T
  0.5280692018851241  0.6113650469159921  0.1666496302771634   T   T   T
  0.3793701504277465  0.9005208519239716  0.1726548538632358   T   T   T
  0.8791780802629390  0.4007951760990309  0.1722851836105690   T   T   T
  0.2375004945799262  0.1844243014865228  0.1724346266141339   T   T   T
  0.7354652894103424  0.6886904936121852  0.1727800717448389   T   T   T
  0.4308817554709208  0.4851501875424375  0.1665157589233033   T   T   T
  0.9307101362402648  0.9854060068694110  0.1662393920470819   T   T   T
  0.2173353404479883  0.4002598493395197  0.1726567285220142   T   T   T
  0.7172312269173631  0.9012417218917932  0.1731332443244398   T   T   T
  0.0731378461845225  0.6890425521496013  0.1728226914214375   T   T   T
  0.5747840487419325  0.1994603442828122  0.1698732139910959   T   T   T
  0.0032411262570804  0.3354844332626072  0.1676736409243986   T   T   T
  0.5023852827181159  0.8419902368971961  0.1672022186231175   T   T   T
  0.3603344352441837  0.1221968247093486  0.1667365068141962   T   T   T
  0.8608487586410831  0.6213692747718724  0.1699409247831412   T   T   T
  0.2903252459676722  0.7564516919336413  0.1731687596741693   T   T   T
  0.7904120436548894  0.2569941718172828  0.1730980601234080   T   T   T
  0.1476212405816000  0.0558478987884286  0.1673317076397254   T   T   T
  0.6469039684018583  0.5565946118446092  0.1678509785660083   T   T   T
  0.2604723349569298  0.6439707314641723  0.2764907716785032   T   T   T
  0.7605153827203779  0.1444000820177678  0.2763823600101887   T   T   T
  0.1906458768663555  0.2887829293076010  0.2767036547669051   T   T   T
  0.6905865460758918  0.7888009719121882  0.2766756430465733   T   T   T
  0.0470710673950876  0.5720917015343900  0.2768052939101011   T   T   T
  0.5469466323499361  0.0722997186850947  0.1814687556502790   T   T   T
  0.4063701887138222  0.3564716838247151  0.1789589653511285   T   T   T
  0.9062897068935953  0.8566888845260934  0.1791098222284546   T   T   T
  0.4753835023076647  0.7121928446593699  0.1790019946690151   T   T   T
  0.9753010632734345  0.2100651585954267  0.1791838816556037   T   T   T
  0.3343110898149106  0.0000162920704909  0.2767350590940083   T   T   T
  0.8342697248627573  0.4999968372290198  0.2767619014982614   T   T   T
  0.1188856509002107  0.9319731873209491  0.1791283334595803   T   T   T
  0.6188607770621886  0.4319701358116603  0.1791581660002208   T   T   T
  0.3808618594760134  0.5685916837115244  0.2291882522773960   T   T   T
  0.8800053321114234  0.0684796420835170  0.2287977266989714   T   T   T
  0.1660996457523609  0.4983486418236041  0.2222198196816620   T   T   T
  0.6667971726306590  0.0011537479055619  0.2259293079884515   T   T   T
  0.0258220430862224  0.7857663043061862  0.2295193105785671   T   T   T
  0.5248393551418147  0.2853175881215932  0.2332530095342520   T   T   T
  0.0946155063241889  0.1443506777924881  0.2292201422992690   T   T   T
  0.5944522290233536  0.6439761057805811  0.2294697925627389   T   T   T
  0.4516674654470449  0.9257191873633062  0.2278473678833279   T   T   T
  0.9524932201119327  0.4275153590333147  0.2242991165955672   T   T   T
  0.3111189245192705  0.2121774518365456  0.2246468665439068   T   T   T
  0.8104274089575654  0.7131255390541611  0.2247970703779743   T   T   T
  0.2394287143447684  0.8563002696952537  0.2244171032484275   T   T   T
  0.7395988967262355  0.3578152856705898  0.2239719618564493   T   T   T
 
  0.00000000E+00  0.00000000E+00  0.00000000E+00
  0.00000000E+00  0.00000000E+00  0.00000000E+00
  0.00000000E+00  0.00000000E+00  0.00000000E+00
  0.00000000E+00  0.00000000E+00  0.00000000E+00
  0.00000000E+00  0.00000000E+00  0.00000000E+00
  0.00000000E+00  0.00000000E+00  0.00000000E+00
  0.00000000E+00  0.00000000E+00  0.00000000E+00
  0.00000000E+00  0.00000000E+00  0.00000000E+00
  0.00000000E+00  0.00000000E+00  0.00000000E+00
  0.00000000E+00  0.00000000E+00  0.00000000E+00
  0.00000000E+00  0.00000000E+00  0.00000000E+00
  0.00000000E+00  0.00000000E+00  0.00000000E+00
  0.00000000E+00  0.00000000E+00  0.00000000E+00
  0.00000000E+00  0.00000000E+00  0.00000000E+00
  0.00000000E+00  0.00000000E+00  0.00000000E+00
  0.00000000E+00  0.00000000E+00  0.00000000E+00
  0.00000000E+00  0.00000000E+00  0.00000000E+00
  0.00000000E+00  0.00000000E+00  0.00000000E+00
  0.00000000E+00  0.00000000E+00  0.00000000E+00
  0.00000000E+00  0.00000000E+00  0.00000000E+00
  0.00000000E+00  0.00000000E+00  0.00000000E+00
  0.00000000E+00  0.00000000E+00  0.00000000E+00
  0.00000000E+00  0.00000000E+00  0.00000000E+00
  0.00000000E+00  0.00000000E+00  0.00000000E+00
  0.00000000E+00  0.00000000E+00  0.00000000E+00
  0.00000000E+00  0.00000000E+00  0.00000000E+00
  0.00000000E+00  0.00000000E+00  0.00000000E+00
  0.00000000E+00  0.00000000E+00  0.00000000E+00
  0.00000000E+00  0.00000000E+00  0.00000000E+00
  0.00000000E+00  0.00000000E+00  0.00000000E+00
  0.00000000E+00  0.00000000E+00  0.00000000E+00
  0.00000000E+00  0.00000000E+00  0.00000000E+00
  0.00000000E+00  0.00000000E+00  0.00000000E+00
  0.00000000E+00  0.00000000E+00  0.00000000E+00
  0.00000000E+00  0.00000000E+00  0.00000000E+00
  0.00000000E+00  0.00000000E+00  0.00000000E+00
  0.00000000E+00  0.00000000E+00  0.00000000E+00
  0.00000000E+00  0.00000000E+00  0.00000000E+00
  0.00000000E+00  0.00000000E+00  0.00000000E+00
  0.00000000E+00  0.00000000E+00  0.00000000E+00
  0.00000000E+00  0.00000000E+00  0.00000000E+00
  0.00000000E+00  0.00000000E+00  0.00000000E+00
  0.00000000E+00  0.00000000E+00  0.00000000E+00
  0.00000000E+00  0.00000000E+00  0.00000000E+00
  0.00000000E+00  0.00000000E+00  0.00000000E+00
  0.00000000E+00  0.00000000E+00  0.00000000E+00
  0.00000000E+00  0.00000000E+00  0.00000000E+00
  0.00000000E+00  0.00000000E+00  0.00000000E+00
  0.00000000E+00  0.00000000E+00  0.00000000E+00
  0.00000000E+00  0.00000000E+00  0.00000000E+00
  0.00000000E+00  0.00000000E+00  0.00000000E+00
  0.00000000E+00  0.00000000E+00  0.00000000E+00
  0.00000000E+00  0.00000000E+00  0.00000000E+00
  0.00000000E+00  0.00000000E+00  0.00000000E+00
  0.00000000E+00  0.00000000E+00  0.00000000E+00
  0.00000000E+00  0.00000000E+00  0.00000000E+00
  0.00000000E+00  0.00000000E+00  0.00000000E+00
  0.00000000E+00  0.00000000E+00  0.00000000E+00
  0.00000000E+00  0.00000000E+00  0.00000000E+00
  0.00000000E+00  0.00000000E+00  0.00000000E+00
  0.00000000E+00  0.00000000E+00  0.00000000E+00
  0.00000000E+00  0.00000000E+00  0.00000000E+00
  0.00000000E+00  0.00000000E+00  0.00000000E+00
  0.00000000E+00  0.00000000E+00  0.00000000E+00
  0.00000000E+00  0.00000000E+00  0.00000000E+00
  0.00000000E+00  0.00000000E+00  0.00000000E+00
  0.00000000E+00  0.00000000E+00  0.00000000E+00
  0.00000000E+00  0.00000000E+00  0.00000000E+00
  0.00000000E+00  0.00000000E+00  0.00000000E+00
  0.00000000E+00  0.00000000E+00  0.00000000E+00
  0.00000000E+00  0.00000000E+00  0.00000000E+00
  0.00000000E+00  0.00000000E+00  0.00000000E+00
  0.00000000E+00  0.00000000E+00  0.00000000E+00
  0.00000000E+00  0.00000000E+00  0.00000000E+00
  0.00000000E+00  0.00000000E+00  0.00000000E+00
  0.00000000E+00  0.00000000E+00  0.00000000E+00
  0.00000000E+00  0.00000000E+00  0.00000000E+00
  0.00000000E+00  0.00000000E+00  0.00000000E+00
  0.00000000E+00  0.00000000E+00  0.00000000E+00
  0.00000000E+00  0.00000000E+00  0.00000000E+00
  0.00000000E+00  0.00000000E+00  0.00000000E+00
  0.00000000E+00  0.00000000E+00  0.00000000E+00
  0.00000000E+00  0.00000000E+00  0.00000000E+00
  0.00000000E+00  0.00000000E+00  0.00000000E+00
  0.00000000E+00  0.00000000E+00  0.00000000E+00
  0.00000000E+00  0.00000000E+00  0.00000000E+00
  0.00000000E+00  0.00000000E+00  0.00000000E+00
  0.00000000E+00  0.00000000E+00  0.00000000E+00
  0.00000000E+00  0.00000000E+00  0.00000000E+00
  0.00000000E+00  0.00000000E+00  0.00000000E+00
  0.00000000E+00  0.00000000E+00  0.00000000E+00
  0.00000000E+00  0.00000000E+00  0.00000000E+00
  0.00000000E+00  0.00000000E+00  0.00000000E+00
  0.00000000E+00  0.00000000E+00  0.00000000E+00
  0.00000000E+00  0.00000000E+00  0.00000000E+00
  0.00000000E+00  0.00000000E+00  0.00000000E+00
  0.00000000E+00  0.00000000E+00  0.00000000E+00
  0.00000000E+00  0.00000000E+00  0.00000000E+00
  0.00000000E+00  0.00000000E+00  0.00000000E+00
  0.00000000E+00  0.00000000E+00  0.00000000E+00
  0.00000000E+00  0.00000000E+00  0.00000000E+00
  0.00000000E+00  0.00000000E+00  0.00000000E+00
  0.00000000E+00  0.00000000E+00  0.00000000E+00
  0.00000000E+00  0.00000000E+00  0.00000000E+00
  0.00000000E+00  0.00000000E+00  0.00000000E+00
  0.00000000E+00  0.00000000E+00  0.00000000E+00
  0.00000000E+00  0.00000000E+00  0.00000000E+00
  0.00000000E+00  0.00000000E+00  0.00000000E+00
  0.00000000E+00  0.00000000E+00  0.00000000E+00
  0.00000000E+00  0.00000000E+00  0.00000000E+00
  0.00000000E+00  0.00000000E+00  0.00000000E+00
  0.00000000E+00  0.00000000E+00  0.00000000E+00
  0.00000000E+00  0.00000000E+00  0.00000000E+00
  0.00000000E+00  0.00000000E+00  0.00000000E+00
  0.00000000E+00  0.00000000E+00  0.00000000E+00
  0.00000000E+00  0.00000000E+00  0.00000000E+00
  0.00000000E+00  0.00000000E+00  0.00000000E+00
  0.00000000E+00  0.00000000E+00  0.00000000E+00
  0.00000000E+00  0.00000000E+00  0.00000000E+00
  0.00000000E+00  0.00000000E+00  0.00000000E+00
  0.00000000E+00  0.00000000E+00  0.00000000E+00
  0.00000000E+00  0.00000000E+00  0.00000000E+00
  0.00000000E+00  0.00000000E+00  0.00000000E+00
  0.00000000E+00  0.00000000E+00  0.00000000E+00
  0.00000000E+00  0.00000000E+00  0.00000000E+00
  0.00000000E+00  0.00000000E+00  0.00000000E+00
  0.00000000E+00  0.00000000E+00  0.00000000E+00
  0.00000000E+00  0.00000000E+00  0.00000000E+00
  0.00000000E+00  0.00000000E+00  0.00000000E+00
  0.00000000E+00  0.00000000E+00  0.00000000E+00
  0.00000000E+00  0.00000000E+00  0.00000000E+00
  0.00000000E+00  0.00000000E+00  0.00000000E+00
  0.00000000E+00  0.00000000E+00  0.00000000E+00
  0.00000000E+00  0.00000000E+00  0.00000000E+00
  0.00000000E+00  0.00000000E+00  0.00000000E+00
  0.00000000E+00  0.00000000E+00  0.00000000E+00
  0.00000000E+00  0.00000000E+00  0.00000000E+00
  0.00000000E+00  0.00000000E+00  0.00000000E+00
  0.00000000E+00  0.00000000E+00  0.00000000E+00
  0.00000000E+00  0.00000000E+00  0.00000000E+00