rec1CONTCARshift                        
    1.000000000000000     
    14.0016529999999992    8.0838260000000002    0.0000000000000000
     0.0000000000000000   16.1677000000000000    0.0000000000000000
     0.0000000000000000    0.0000000000000000   30.0000000000000000
   C    P    S    Cu   In
    86    14    42     7     7
Selective dynamics
Direct
  0.0228449999999967  0.1416100000000000  0.4018450000000016   T   T   T
  0.1853539999999967  0.1180420000000026  0.3994599999999977   T   T   T
  0.3481499999999969  0.0925900000000013  0.3994739999999979   T   T   T
  0.5113139999999987  0.0679810000000032  0.4023790000000034   T   T   T
  0.6750329999999991  0.0463530000000034  0.4018099999999976   T   T   T
  0.8355639999999980  0.0228290000000015  0.4018519999999981   T   T   T
  0.0000000000000000  0.0001150000000010  0.4017290000000031   T   T   T
  0.0463540000000009  0.2786169999999970  0.4018099999999976   T   T   T
  0.2099279999999979  0.2553160000000005  0.4022130000000033   T   T   T
  0.3739149999999967  0.2299009999999981  0.3994969999999967   T   T   T
  0.5347579999999965  0.2099260000000029  0.4022130000000033   T   T   T
  0.6966049999999981  0.1853529999999992  0.3994599999999977   T   T   T
  0.8582159999999988  0.1649480000000025  0.4021529999999984   T   T   T
  0.0679840000000027  0.4207090000000022  0.4023790000000034   T   T   T
  0.2299140000000008  0.3961740000000020  0.3994980000000012   T   T   T
  0.3961820000000031  0.3739070000000027  0.3994980000000012   T   T   T
  0.5592609999999993  0.3481499999999969  0.3994739999999979   T   T   T
  0.7210949999999983  0.3247479999999996  0.4020590000000013   T   T   T
  0.8859339999999989  0.3015469999999993  0.4019400000000033   T   T   T
  0.0925909999999988  0.5592600000000019  0.3994739999999979   T   T   T
  0.2553199999999975  0.5347569999999990  0.4022119999999987   T   T   T
  0.4207090000000022  0.5113089999999971  0.4023800000000008   T   T   T
  0.5803470000000033  0.4884350000000026  0.4020590000000013   T   T   T
  0.7432840000000027  0.4653410000000022  0.4019869999999983   T   T   T
  0.9073750000000018  0.4407759999999996  0.3994959999999992   T   T   T
  0.1180430000000001  0.6966049999999981  0.3994599999999977   T   T   T
  0.2786150000000021  0.6750320000000016  0.4018099999999976   T   T   T
  0.4407769999999971  0.6518500000000031  0.3994959999999992   T   T   T
  0.6013519999999986  0.6317960000000014  0.4023630000000011   T   T   T
  0.7668589999999966  0.6013480000000015  0.4023630000000011   T   T   T
  0.9312240000000003  0.5803459999999987  0.4020590000000013   T   T   T
  0.1416079999999980  0.8355609999999984  0.4018510000000006   T   T   T
  0.3015490000000014  0.8125199999999992  0.4019400000000033   T   T   T
  0.4653440000000018  0.7913780000000017  0.4019869999999983   T   T   T
  0.6317960000000014  0.7668549999999996  0.4023630000000011   T   T   T
  0.7913799999999966  0.7432820000000007  0.4019860000000008   T   T   T
  0.9541600000000017  0.7210949999999983  0.4020590000000013   T   T   T
  0.1649540000000016  0.9768309999999971  0.4021520000000010   T   T   T
  0.3247519999999966  0.9541579999999996  0.4020579999999967   T   T   T
  0.4884360000000001  0.9312219999999982  0.4020590000000013   T   T   T
  0.6518510000000006  0.9073739999999972  0.3994959999999992   T   T   T
  0.8125229999999988  0.8859319999999968  0.4019400000000033   T   T   T
  0.9768359999999987  0.8582249999999974  0.4021540000000030   T   T   T
  0.1234189999999984  0.0780019999999979  0.4021979999999985   T   T   T
  0.2869699999999966  0.0547269999999997  0.4018220000000028   T   T   T
  0.4474080000000029  0.0317969999999974  0.4019410000000008   T   T   T
  0.6122480000000010  0.0085699999999989  0.4020429999999990   T   T   T
  0.1479819999999989  0.2152910000000006  0.3994619999999998   T   T   T
  0.3105320000000020  0.1917199999999966  0.4018999999999977   T   T   T
  0.4751230000000035  0.1683799999999991  0.4021240000000006   T   T   T
  0.6367279999999980  0.1479810000000015  0.3994619999999998   T   T   T
  0.7985820000000032  0.1234200000000030  0.4021990000000031   T   T   T
  0.9594239999999985  0.1034310000000005  0.3995019999999982   T   T   T
  0.0085740000000030  0.3791840000000022  0.4020439999999965   T   T   T
  0.1683870000000027  0.3564980000000020  0.4021219999999985   T   T   T
  0.3334189999999992  0.3331919999999968  0.4017199999999974   T   T   T
  0.4977450000000019  0.3105380000000011  0.4018999999999977   T   T   T
  0.6583040000000011  0.2869689999999991  0.4018209999999982   T   T   T
  0.8220230000000015  0.2653499999999980  0.4023609999999991   T   T   T
  0.9851839999999967  0.2407480000000035  0.3994720000000029   T   T   T
  0.0317989999999995  0.5207970000000017  0.4019410000000008   T   T   T
  0.1917230000000032  0.4977409999999978  0.4019019999999998   T   T   T
  0.3564980000000020  0.4751159999999999  0.4021240000000006   T   T   T
  0.5208000000000013  0.4474060000000009  0.4019410000000008   T   T   T
  0.6814880000000016  0.4259569999999968  0.3994950000000017   T   T   T
  0.8449010000000001  0.4021109999999979  0.4020799999999980   T   T   T
  0.0547279999999972  0.6583040000000011  0.4018230000000003   T   T   T
  0.2152919999999980  0.6367270000000005  0.3994619999999998   T   T   T
  0.3791849999999997  0.6122450000000015  0.4020420000000016   T   T   T
  0.5419430000000034  0.5900639999999981  0.4019860000000008   T   T   T
  0.7015460000000004  0.5664739999999995  0.4023600000000016   T   T   T
  0.8679980000000000  0.5419410000000013  0.4019850000000034   T   T   T
  0.0780049999999974  0.7985789999999966  0.4021979999999985   T   T   T
  0.2407480000000035  0.7740700000000018  0.3994720000000029   T   T   T
  0.4021150000000020  0.7529899999999969  0.4020810000000026   T   T   T
  0.5664780000000036  0.7319800000000001  0.4023600000000016   T   T   T
  0.7319820000000021  0.7015460000000004  0.4023600000000016   T   T   T
  0.8925559999999990  0.6814869999999971  0.3994950000000017   T   T   T
  0.1034239999999969  0.9371549999999971  0.3995019999999982   T   T   T
  0.2653529999999975  0.9126290000000026  0.4023609999999991   T   T   T
  0.4259580000000014  0.8925559999999990  0.3994950000000017   T   T   T
  0.5900669999999977  0.8679959999999980  0.4019850000000034   T   T   T
  0.7529910000000015  0.8448989999999981  0.4020799999999980   T   T   T
  0.9126290000000026  0.8220219999999969  0.4023609999999991   T   T   T
  0.7740709999999993  0.9851820000000018  0.3994720000000029   T   T   T
  0.9371539999999996  0.9594290000000001  0.3995019999999982   T   T   T
  0.8554099999999991  0.7119450000000001  0.1944939999999988   T   T   T
  0.4323490000000021  0.8557350000000028  0.1946900000000014   T   T   T
  0.7119410000000030  0.4327139999999972  0.1945240000000013   T   T   T
  0.2885229999999979  0.5678380000000018  0.1948330000000027   T   T   T
  0.5678679999999972  0.1436210000000031  0.1948269999999965   T   T   T
  0.1436360000000008  0.2885289999999969  0.1948330000000027   T   T   T
  0.0000220000000013  0.9999979999999979  0.1949570000000023   T   T   T
  0.0000179999999972  0.0000029999999995  0.2706209999999984   T   T   T
  0.8556460000000001  0.7112979999999993  0.2702740000000006   T   T   T
  0.4330229999999986  0.8557879999999969  0.2703369999999978   T   T   T
  0.7112660000000020  0.4331400000000016  0.2702900000000028   T   T   T
  0.2873889999999975  0.5699419999999975  0.2701769999999968   T   T   T
  0.5699869999999976  0.1426820000000006  0.2701640000000012   T   T   T
  0.1427100000000010  0.2873710000000003  0.2701800000000034   T   T   T
  0.9576819999999984  0.5778689999999997  0.1749390000000020   T   T   T
  0.5303910000000016  0.7209849999999989  0.1728290000000001   T   T   T
  0.1001910000000024  0.8647130000000018  0.1752529999999979   T   T   T
  0.8117790000000014  0.2966910000000027  0.1750010000000017   T   T   T
  0.3890060000000020  0.4327699999999979  0.1753209999999967   T   T   T
  0.6681310000000025  0.0088379999999972  0.1750320000000016   T   T   T
  0.2441269999999989  0.1531390000000030  0.1750770000000017   T   T   T
  0.7217649999999978  0.7467899999999972  0.1711850000000013   T   T   T
  0.2965799999999987  0.8916219999999981  0.1749719999999968   T   T   T
  0.5778770000000009  0.4644290000000026  0.1749220000000022   T   T   T
  0.1531400000000005  0.6027470000000008  0.1750759999999971   T   T   T
  0.8647300000000016  0.0351349999999968  0.1752430000000018   T   T   T
  0.4327839999999981  0.1782230000000027  0.1753250000000008   T   T   T
  0.0088610000000031  0.3230399999999989  0.1750350000000012   T   T   T
  0.8916109999999975  0.8118059999999971  0.1749510000000001   T   T   T
  0.4645470000000032  0.9575359999999975  0.1749129999999965   T   T   T
  0.7468020000000024  0.5314679999999967  0.1712240000000023   T   T   T
  0.3229949999999988  0.6680909999999969  0.1750290000000021   T   T   T
  0.6027810000000002  0.2440969999999965  0.1750600000000020   T   T   T
  0.1782520000000005  0.3889920000000018  0.1753190000000018   T   T   T
  0.0351289999999977  0.1001740000000026  0.1752449999999968   T   T   T
  0.9892510000000030  0.6774709999999970  0.2885339999999985   T   T   T
  0.5670860000000033  0.8205170000000024  0.2882549999999995   T   T   T
  0.1345269999999985  0.9650970000000001  0.2883199999999988   T   T   T
  0.8467350000000025  0.3984859999999983  0.2840249999999997   T   T   T
  0.4219149999999985  0.5328799999999987  0.2886499999999970   T   T   T
  0.7089909999999975  0.1019679999999994  0.2840109999999996   T   T   T
  0.2779230000000013  0.2452559999999977  0.2890299999999968   T   T   T
  0.7548269999999988  0.8467300000000009  0.2840229999999977   T   T   T
  0.3332120000000032  0.9893959999999993  0.2885860000000022   T   T   T
  0.6124989999999997  0.5671099999999996  0.2882329999999982   T   T   T
  0.1890679999999989  0.7089479999999995  0.2840229999999977   T   T   T
  0.9004189999999994  0.1345140000000029  0.2883169999999993   T   T   T
  0.4768899999999974  0.2779120000000006  0.2890099999999975   T   T   T
  0.0452530000000024  0.4218979999999988  0.2886560000000031   T   T   T
  0.9651160000000019  0.9003960000000006  0.2883220000000009   T   T   T
  0.8204729999999998  0.6124590000000012  0.2882159999999985   T   T   T
  0.3984480000000019  0.7548979999999972  0.2840750000000014   T   T   T
  0.6775189999999967  0.3332800000000020  0.2885330000000010   T   T   T
  0.2452589999999972  0.4768550000000005  0.2890330000000034   T   T   T
  0.5329100000000011  0.0452289999999991  0.2886519999999990   T   T   T
  0.1020150000000015  0.1890569999999983  0.2840259999999972   T   T   T
  0.6161140000000032  0.9045500000000004  0.1843250000000012   T   T   T
  0.9045529999999999  0.4793420000000026  0.1843270000000032   T   T   T
  0.4792720000000017  0.6160929999999993  0.1844170000000034   T   T   T
  0.0481770000000026  0.7592890000000025  0.1849929999999986   T   T   T
  0.7592920000000021  0.1925389999999965  0.1849940000000032   T   T   T
  0.3333459999999988  0.3333319999999986  0.1850400000000008   T   T   T
  0.1925389999999965  0.0481750000000005  0.1849929999999986   T   T   T
  0.8123530000000017  0.9476060000000004  0.2391450000000006   T   T   T
  0.6667980000000000  0.6667279999999991  0.2389259999999993   T   T   T
  0.2401830000000018  0.8122299999999996  0.2392169999999965   T   T   T
  0.9476790000000008  0.2400930000000017  0.2391739999999984   T   T   T
  0.5253840000000025  0.3804870000000022  0.2405839999999984   T   T   T
  0.0942480000000003  0.5252759999999981  0.2405759999999972   T   T   T
  0.3805029999999974  0.0942039999999977  0.2406330000000025   T   T   T
 
  0.00000000E+00  0.00000000E+00  0.00000000E+00
  0.00000000E+00  0.00000000E+00  0.00000000E+00
  0.00000000E+00  0.00000000E+00  0.00000000E+00
  0.00000000E+00  0.00000000E+00  0.00000000E+00
  0.00000000E+00  0.00000000E+00  0.00000000E+00
  0.00000000E+00  0.00000000E+00  0.00000000E+00
  0.00000000E+00  0.00000000E+00  0.00000000E+00
  0.00000000E+00  0.00000000E+00  0.00000000E+00
  0.00000000E+00  0.00000000E+00  0.00000000E+00
  0.00000000E+00  0.00000000E+00  0.00000000E+00
  0.00000000E+00  0.00000000E+00  0.00000000E+00
  0.00000000E+00  0.00000000E+00  0.00000000E+00
  0.00000000E+00  0.00000000E+00  0.00000000E+00
  0.00000000E+00  0.00000000E+00  0.00000000E+00
  0.00000000E+00  0.00000000E+00  0.00000000E+00
  0.00000000E+00  0.00000000E+00  0.00000000E+00
  0.00000000E+00  0.00000000E+00  0.00000000E+00
  0.00000000E+00  0.00000000E+00  0.00000000E+00
  0.00000000E+00  0.00000000E+00  0.00000000E+00
  0.00000000E+00  0.00000000E+00  0.00000000E+00
  0.00000000E+00  0.00000000E+00  0.00000000E+00
  0.00000000E+00  0.00000000E+00  0.00000000E+00
  0.00000000E+00  0.00000000E+00  0.00000000E+00
  0.00000000E+00  0.00000000E+00  0.00000000E+00
  0.00000000E+00  0.00000000E+00  0.00000000E+00
  0.00000000E+00  0.00000000E+00  0.00000000E+00
  0.00000000E+00  0.00000000E+00  0.00000000E+00
  0.00000000E+00  0.00000000E+00  0.00000000E+00
  0.00000000E+00  0.00000000E+00  0.00000000E+00
  0.00000000E+00  0.00000000E+00  0.00000000E+00
  0.00000000E+00  0.00000000E+00  0.00000000E+00
  0.00000000E+00  0.00000000E+00  0.00000000E+00
  0.00000000E+00  0.00000000E+00  0.00000000E+00
  0.00000000E+00  0.00000000E+00  0.00000000E+00
  0.00000000E+00  0.00000000E+00  0.00000000E+00
  0.00000000E+00  0.00000000E+00  0.00000000E+00
  0.00000000E+00  0.00000000E+00  0.00000000E+00
  0.00000000E+00  0.00000000E+00  0.00000000E+00
  0.00000000E+00  0.00000000E+00  0.00000000E+00
  0.00000000E+00  0.00000000E+00  0.00000000E+00
  0.00000000E+00  0.00000000E+00  0.00000000E+00
  0.00000000E+00  0.00000000E+00  0.00000000E+00
  0.00000000E+00  0.00000000E+00  0.00000000E+00
  0.00000000E+00  0.00000000E+00  0.00000000E+00
  0.00000000E+00  0.00000000E+00  0.00000000E+00
  0.00000000E+00  0.00000000E+00  0.00000000E+00
  0.00000000E+00  0.00000000E+00  0.00000000E+00
  0.00000000E+00  0.00000000E+00  0.00000000E+00
  0.00000000E+00  0.00000000E+00  0.00000000E+00
  0.00000000E+00  0.00000000E+00  0.00000000E+00
  0.00000000E+00  0.00000000E+00  0.00000000E+00
  0.00000000E+00  0.00000000E+00  0.00000000E+00
  0.00000000E+00  0.00000000E+00  0.00000000E+00
  0.00000000E+00  0.00000000E+00  0.00000000E+00
  0.00000000E+00  0.00000000E+00  0.00000000E+00
  0.00000000E+00  0.00000000E+00  0.00000000E+00
  0.00000000E+00  0.00000000E+00  0.00000000E+00
  0.00000000E+00  0.00000000E+00  0.00000000E+00
  0.00000000E+00  0.00000000E+00  0.00000000E+00
  0.00000000E+00  0.00000000E+00  0.00000000E+00
  0.00000000E+00  0.00000000E+00  0.00000000E+00
  0.00000000E+00  0.00000000E+00  0.00000000E+00
  0.00000000E+00  0.00000000E+00  0.00000000E+00
  0.00000000E+00  0.00000000E+00  0.00000000E+00
  0.00000000E+00  0.00000000E+00  0.00000000E+00
  0.00000000E+00  0.00000000E+00  0.00000000E+00
  0.00000000E+00  0.00000000E+00  0.00000000E+00
  0.00000000E+00  0.00000000E+00  0.00000000E+00
  0.00000000E+00  0.00000000E+00  0.00000000E+00
  0.00000000E+00  0.00000000E+00  0.00000000E+00
  0.00000000E+00  0.00000000E+00  0.00000000E+00
  0.00000000E+00  0.00000000E+00  0.00000000E+00
  0.00000000E+00  0.00000000E+00  0.00000000E+00
  0.00000000E+00  0.00000000E+00  0.00000000E+00
  0.00000000E+00  0.00000000E+00  0.00000000E+00
  0.00000000E+00  0.00000000E+00  0.00000000E+00
  0.00000000E+00  0.00000000E+00  0.00000000E+00
  0.00000000E+00  0.00000000E+00  0.00000000E+00
  0.00000000E+00  0.00000000E+00  0.00000000E+00
  0.00000000E+00  0.00000000E+00  0.00000000E+00
  0.00000000E+00  0.00000000E+00  0.00000000E+00
  0.00000000E+00  0.00000000E+00  0.00000000E+00
  0.00000000E+00  0.00000000E+00  0.00000000E+00
  0.00000000E+00  0.00000000E+00  0.00000000E+00
  0.00000000E+00  0.00000000E+00  0.00000000E+00
  0.00000000E+00  0.00000000E+00  0.00000000E+00
  0.00000000E+00  0.00000000E+00  0.00000000E+00
  0.00000000E+00  0.00000000E+00  0.00000000E+00
  0.00000000E+00  0.00000000E+00  0.00000000E+00
  0.00000000E+00  0.00000000E+00  0.00000000E+00
  0.00000000E+00  0.00000000E+00  0.00000000E+00
  0.00000000E+00  0.00000000E+00  0.00000000E+00
  0.00000000E+00  0.00000000E+00  0.00000000E+00
  0.00000000E+00  0.00000000E+00  0.00000000E+00
  0.00000000E+00  0.00000000E+00  0.00000000E+00
  0.00000000E+00  0.00000000E+00  0.00000000E+00
  0.00000000E+00  0.00000000E+00  0.00000000E+00
  0.00000000E+00  0.00000000E+00  0.00000000E+00
  0.00000000E+00  0.00000000E+00  0.00000000E+00
  0.00000000E+00  0.00000000E+00  0.00000000E+00
  0.00000000E+00  0.00000000E+00  0.00000000E+00
  0.00000000E+00  0.00000000E+00  0.00000000E+00
  0.00000000E+00  0.00000000E+00  0.00000000E+00
  0.00000000E+00  0.00000000E+00  0.00000000E+00
  0.00000000E+00  0.00000000E+00  0.00000000E+00
  0.00000000E+00  0.00000000E+00  0.00000000E+00
  0.00000000E+00  0.00000000E+00  0.00000000E+00
  0.00000000E+00  0.00000000E+00  0.00000000E+00
  0.00000000E+00  0.00000000E+00  0.00000000E+00
  0.00000000E+00  0.00000000E+00  0.00000000E+00
  0.00000000E+00  0.00000000E+00  0.00000000E+00
  0.00000000E+00  0.00000000E+00  0.00000000E+00
  0.00000000E+00  0.00000000E+00  0.00000000E+00
  0.00000000E+00  0.00000000E+00  0.00000000E+00
  0.00000000E+00  0.00000000E+00  0.00000000E+00
  0.00000000E+00  0.00000000E+00  0.00000000E+00
  0.00000000E+00  0.00000000E+00  0.00000000E+00
  0.00000000E+00  0.00000000E+00  0.00000000E+00
  0.00000000E+00  0.00000000E+00  0.00000000E+00
  0.00000000E+00  0.00000000E+00  0.00000000E+00
  0.00000000E+00  0.00000000E+00  0.00000000E+00
  0.00000000E+00  0.00000000E+00  0.00000000E+00
  0.00000000E+00  0.00000000E+00  0.00000000E+00
  0.00000000E+00  0.00000000E+00  0.00000000E+00
  0.00000000E+00  0.00000000E+00  0.00000000E+00
  0.00000000E+00  0.00000000E+00  0.00000000E+00
  0.00000000E+00  0.00000000E+00  0.00000000E+00
  0.00000000E+00  0.00000000E+00  0.00000000E+00
  0.00000000E+00  0.00000000E+00  0.00000000E+00
  0.00000000E+00  0.00000000E+00  0.00000000E+00
  0.00000000E+00  0.00000000E+00  0.00000000E+00
  0.00000000E+00  0.00000000E+00  0.00000000E+00
  0.00000000E+00  0.00000000E+00  0.00000000E+00
  0.00000000E+00  0.00000000E+00  0.00000000E+00
  0.00000000E+00  0.00000000E+00  0.00000000E+00
  0.00000000E+00  0.00000000E+00  0.00000000E+00
  0.00000000E+00  0.00000000E+00  0.00000000E+00
  0.00000000E+00  0.00000000E+00  0.00000000E+00
  0.00000000E+00  0.00000000E+00  0.00000000E+00
  0.00000000E+00  0.00000000E+00  0.00000000E+00
  0.00000000E+00  0.00000000E+00  0.00000000E+00
  0.00000000E+00  0.00000000E+00  0.00000000E+00
  0.00000000E+00  0.00000000E+00  0.00000000E+00
  0.00000000E+00  0.00000000E+00  0.00000000E+00
  0.00000000E+00  0.00000000E+00  0.00000000E+00
  0.00000000E+00  0.00000000E+00  0.00000000E+00
  0.00000000E+00  0.00000000E+00  0.00000000E+00
  0.00000000E+00  0.00000000E+00  0.00000000E+00
  0.00000000E+00  0.00000000E+00  0.00000000E+00
  0.00000000E+00  0.00000000E+00  0.00000000E+00
  0.00000000E+00  0.00000000E+00  0.00000000E+00
  0.00000000E+00  0.00000000E+00  0.00000000E+00
  0.00000000E+00  0.00000000E+00  0.00000000E+00
  0.00000000E+00  0.00000000E+00  0.00000000E+00
  0.00000000E+00  0.00000000E+00  0.00000000E+00
  0.00000000E+00  0.00000000E+00  0.00000000E+00
