CPOSCARsurf1                            
   1.00000000000000     
     2.4678532487298956    0.0000001789708353    0.0000000000000000
    -1.2339264694000862    2.1372237078716512    0.0000000000000000
     0.0000000000000000    0.0000000000000000   10.0000000000000000
   C 
     2
Direct
  0.0000017088212402  0.9999983180815009  0.4999999999999716
  0.6666683151787580  0.3333316869184997  0.5000000000000283
 
  0.00000000E+00  0.00000000E+00  0.00000000E+00
  0.00000000E+00  0.00000000E+00  0.00000000E+00
