 P  S Cu In                             
   1.00000000000000     
    14.0016529999999992    8.0838260000000002    0.0000000000000000
     0.0000000000000000   16.1677000000000000    0.0000000000000000
     0.0000000000000000    0.0000000000000000   30.0000000000000000
   P    S    Cu   In
    14    42     7     7
Direct
  0.8559202410955749  0.7117687671449460  0.2721625831641390
  0.4321300010459410  0.8558132098065698  0.2720851369265205
  0.7116620181953195  0.4322117837137682  0.2722208386405427
  0.2871925293214375  0.5683391915420515  0.2730856989010917
  0.5684594005077415  0.1441357406240513  0.2731046809074371
  0.1442721580057693  0.2871734587871160  0.2730687079099070
  0.9999896470466609  0.9998828564550664  0.2657710000000009
  0.0000169873894862  0.9998959147946636  0.1919775622574136
  0.8562394628784986  0.7110216826100739  0.1973220394883981
  0.4326594950436871  0.8561054104847372  0.1972922235411687
  0.7111051004559030  0.4325545892115557  0.1973419638054565
  0.2862418186760252  0.5709981335895833  0.1992258278880286
  0.5711700570679454  0.1424946225184485  0.1992682079679611
  0.1427484100663037  0.2859933770010272  0.1992189893863880
  0.9577236851525583  0.5781575667729584  0.2913192516684973
  0.5319437167637560  0.7199252392689388  0.2899002888513991
  0.0992090253530122  0.8652994918267538  0.2861353771761159
  0.8118143455671856  0.2966059762504614  0.2906659050914158
  0.3882728954681980  0.4326728151620358  0.2908595758953396
  0.6682085636876138  0.0082666207535311  0.2908919180474570
  0.2434452662093847  0.1480328332492462  0.2911245237944229
  0.7203608741894314  0.7472121377197993  0.2902604314992914
  0.2966704812832432  0.8913519033184016  0.2906811213670508
  0.5779663209186978  0.4644355555208435  0.2916046920742943
  0.1481264194219278  0.6083342380586458  0.2910895871129355
  0.8653804860284779  0.0353512541556924  0.2861276491268825
  0.4326649298781859  0.1789565902006487  0.2907607065852034
  0.0084232201525438  0.3233589510324819  0.2909091232951440
  0.8914216656076093  0.8117569991609059  0.2907156195323566
  0.4641270688708445  0.9574964408441531  0.2913036723280058
  0.7473686357784075  0.5322013015395299  0.2902271139963304
  0.3228429445007563  0.6683473493519472  0.2910044721385106
  0.6083636707583011  0.2432668221795424  0.2911872153890656
  0.1791036158160040  0.3882230583780384  0.2906207872019948
  0.0354435477977688  0.0990813506738348  0.2861282047233118
  0.9896062504915548  0.6777679142246456  0.1790300776623326
  0.5664111227765503  0.8217715029979473  0.1790742216204393
  0.1354592858877623  0.9654318259505317  0.1779419361181596
  0.8463936232836460  0.3989943727490086  0.1835313051107761
  0.4220315642575159  0.5341780111788168  0.1836463581130232
  0.7088272246786715  0.1022436896654355  0.1836426489442431
  0.2772162884902087  0.2454598331330828  0.1789493066091978
  0.7544774832502483  0.8463008089975332  0.1835111307880126
  0.3325246110733886  0.9894665423680067  0.1790127272988826
  0.6116989597257856  0.5662420826954815  0.1790685088095501
  0.1888334831624121  0.7086095235989234  0.1835638105493871
  0.8990286522383144  0.1353486221631997  0.1779418578685892
  0.4773330303771317  0.2770342590579915  0.1789611170617391
  0.0436958632501572  0.4217888615715069  0.1835982581982449
  0.9655690905690619  0.8989119608226446  0.1779453514784279
  0.8219531892060274  0.6115840022113233  0.1790914275745266
  0.3991092766143325  0.7543565635972840  0.1834741187988129
  0.6778352699870780  0.3324624264673872  0.1790383692077384
  0.2456424114536802  0.4771095273597297  0.1789234360803320
  0.5343865849511999  0.0435386314049850  0.1836197934133494
  0.1024391195942798  0.1886576047291584  0.1836105791601952
  0.6150959630558717  0.9036311187694608  0.2827951616442803
  0.9036473575610842  0.4812485951263525  0.2827998962340601
  0.4789359236209307  0.6162302457333197  0.2828361128420624
  0.0479197163201448  0.7596364789760486  0.2781530639016481
  0.7596548989966223  0.1923724474486974  0.2781548104400215
  0.3333560555611683  0.3332906688067254  0.2770194482652499
  0.1924189482114187  0.0479031125159679  0.2781459521348282
  0.8118508081420330  0.9467155767801145  0.2267325760398293
  0.6667039660750191  0.6663907421989279  0.2245175134535202
  0.2411963676107973  0.8116433951608570  0.2266488774437008
  0.9469666837407331  0.2410228624574344  0.2267025216807497
  0.5267572377521930  0.3781563376901076  0.2272633971835702
  0.0949970843956294  0.5263643593231890  0.2270428512178810
  0.3784443073557355  0.0947160540034488  0.2271147712755450
 
  0.00000000E+00  0.00000000E+00  0.00000000E+00
  0.00000000E+00  0.00000000E+00  0.00000000E+00
  0.00000000E+00  0.00000000E+00  0.00000000E+00
  0.00000000E+00  0.00000000E+00  0.00000000E+00
  0.00000000E+00  0.00000000E+00  0.00000000E+00
  0.00000000E+00  0.00000000E+00  0.00000000E+00
  0.00000000E+00  0.00000000E+00  0.00000000E+00
  0.00000000E+00  0.00000000E+00  0.00000000E+00
  0.00000000E+00  0.00000000E+00  0.00000000E+00
  0.00000000E+00  0.00000000E+00  0.00000000E+00
  0.00000000E+00  0.00000000E+00  0.00000000E+00
  0.00000000E+00  0.00000000E+00  0.00000000E+00
  0.00000000E+00  0.00000000E+00  0.00000000E+00
  0.00000000E+00  0.00000000E+00  0.00000000E+00
  0.00000000E+00  0.00000000E+00  0.00000000E+00
  0.00000000E+00  0.00000000E+00  0.00000000E+00
  0.00000000E+00  0.00000000E+00  0.00000000E+00
  0.00000000E+00  0.00000000E+00  0.00000000E+00
  0.00000000E+00  0.00000000E+00  0.00000000E+00
  0.00000000E+00  0.00000000E+00  0.00000000E+00
  0.00000000E+00  0.00000000E+00  0.00000000E+00
  0.00000000E+00  0.00000000E+00  0.00000000E+00
  0.00000000E+00  0.00000000E+00  0.00000000E+00
  0.00000000E+00  0.00000000E+00  0.00000000E+00
  0.00000000E+00  0.00000000E+00  0.00000000E+00
  0.00000000E+00  0.00000000E+00  0.00000000E+00
  0.00000000E+00  0.00000000E+00  0.00000000E+00
  0.00000000E+00  0.00000000E+00  0.00000000E+00
  0.00000000E+00  0.00000000E+00  0.00000000E+00
  0.00000000E+00  0.00000000E+00  0.00000000E+00
  0.00000000E+00  0.00000000E+00  0.00000000E+00
  0.00000000E+00  0.00000000E+00  0.00000000E+00
  0.00000000E+00  0.00000000E+00  0.00000000E+00
  0.00000000E+00  0.00000000E+00  0.00000000E+00
  0.00000000E+00  0.00000000E+00  0.00000000E+00
  0.00000000E+00  0.00000000E+00  0.00000000E+00
  0.00000000E+00  0.00000000E+00  0.00000000E+00
  0.00000000E+00  0.00000000E+00  0.00000000E+00
  0.00000000E+00  0.00000000E+00  0.00000000E+00
  0.00000000E+00  0.00000000E+00  0.00000000E+00
  0.00000000E+00  0.00000000E+00  0.00000000E+00
  0.00000000E+00  0.00000000E+00  0.00000000E+00
  0.00000000E+00  0.00000000E+00  0.00000000E+00
  0.00000000E+00  0.00000000E+00  0.00000000E+00
  0.00000000E+00  0.00000000E+00  0.00000000E+00
  0.00000000E+00  0.00000000E+00  0.00000000E+00
  0.00000000E+00  0.00000000E+00  0.00000000E+00
  0.00000000E+00  0.00000000E+00  0.00000000E+00
  0.00000000E+00  0.00000000E+00  0.00000000E+00
  0.00000000E+00  0.00000000E+00  0.00000000E+00
  0.00000000E+00  0.00000000E+00  0.00000000E+00
  0.00000000E+00  0.00000000E+00  0.00000000E+00
  0.00000000E+00  0.00000000E+00  0.00000000E+00
  0.00000000E+00  0.00000000E+00  0.00000000E+00
  0.00000000E+00  0.00000000E+00  0.00000000E+00
  0.00000000E+00  0.00000000E+00  0.00000000E+00
  0.00000000E+00  0.00000000E+00  0.00000000E+00
  0.00000000E+00  0.00000000E+00  0.00000000E+00
  0.00000000E+00  0.00000000E+00  0.00000000E+00
  0.00000000E+00  0.00000000E+00  0.00000000E+00
  0.00000000E+00  0.00000000E+00  0.00000000E+00
  0.00000000E+00  0.00000000E+00  0.00000000E+00
  0.00000000E+00  0.00000000E+00  0.00000000E+00
  0.00000000E+00  0.00000000E+00  0.00000000E+00
  0.00000000E+00  0.00000000E+00  0.00000000E+00
  0.00000000E+00  0.00000000E+00  0.00000000E+00
  0.00000000E+00  0.00000000E+00  0.00000000E+00
  0.00000000E+00  0.00000000E+00  0.00000000E+00
  0.00000000E+00  0.00000000E+00  0.00000000E+00
  0.00000000E+00  0.00000000E+00  0.00000000E+00
