largec1CONTCARfar                       
   1.00000000000000     
    28.0032997130999988    0.0000000000000000    0.0000000000000000
     0.0000000000000000   16.1676998137999988    0.0000000000000000
     0.0000000000000000    0.0000000000000000   30.0000000000000000
   C    P    S    Cu   In
   172    28    84    14    14
Direct
 -1.0022702509379535 -0.9221025074711582  0.4023781362570502
 -0.5015934491733437 -0.4203093234630928  0.3971778410327624
 -0.9310291042088599 -0.0172519123203361  0.4037396263129687
 -0.4308371668712800 -0.5163982594378441  0.3982973619282851
 -0.8629725866826564 -0.1072330629183896  0.4051958699565552
 -0.3607824718391393 -0.6103322171261595  0.3986289331858258
 -0.7947772757801361 -0.2010540361630724  0.4025649743486518
 -0.2924546845161651 -0.7007424697289875  0.4039755808855651
 -0.7229806206108849 -0.2918539394926036  0.3951550983739454
 -0.2226119361464384 -0.7947590746859863  0.4050039966192800
 -0.6526022899806062 -0.3863113623599004  0.3994903974081267
 -0.1536866263411485 -0.8863209871016007  0.4073231073797351
 -1.0838623869386286 -0.9803183366039273  0.4019517068578259
 -0.5833155511616600 -0.4790379503442934  0.3996085571585884
 -0.9215102900706271 -0.8635429897489566  0.4024909653799214
 -0.4201030107756727 -0.3648709826452439  0.3990259236833994
 -0.8510059414621596 -0.9548308343015167  0.4022832155726692
 -0.3488884077578218 -0.4581912331958278  0.3938950008697726
 -0.7812836004857903 -0.0485641658571634  0.3990214768207897
 -0.2792230344250284 -0.5529292748102844  0.4023894198447575
 -0.7125869778540092 -0.1401445658373425  0.3966732429499569
 -0.2105344557245603 -0.6412789171482945  0.4071627429317877
 -0.6422127566374838 -0.2344837690103962  0.3976827227158644
 -0.1414324065817606 -0.7373205227850690  0.4058817962076580
 -1.0716095924457441 -0.8303612481480238  0.4005802662833369
 -0.5711886180071353 -0.3270839967918958  0.3999037369982574
 -0.8402739596683656 -0.8036456701067005  0.4006166652527979
 -0.3383505137803902 -0.3036527773745319  0.3979307790288906
 -0.7693439918282485 -0.8992659229529602  0.4000376180444690
 -0.2686092504109459 -0.4008198927884362  0.3963619247300488
 -0.7014209304643805  0.0096350025722293  0.3980023338831568
 -0.1989138683277071 -0.4925509291366750  0.4042040363055656
 -0.6318232716433733 -0.0870054611669304  0.3994274632736376
 -0.1292017854755749 -0.5814032000223538  0.4085935181884437
 -1.0617716627651841 -0.6779462160390322  0.4048698173298804
 -0.5618276341316908 -0.1736905577697425  0.3939850929004861
 -0.9901682103909440 -0.7722599327052844  0.4030897205472347
 -0.4922333007341174 -0.2701693184816771  0.3979234729521166
 -0.7572939737438334 -0.7471655982240679  0.4034381930266000
 -0.2575604426688389 -0.2459815101368289  0.3978517097377061
 -0.6865044564552881 -0.8367509424910037  0.3981162393492495
 -0.1875921080916733 -0.3371803344495259  0.4027240400637138
 -0.6200148746021142 -0.9338273744179888  0.3969869305763101
 -0.1196309038118246 -0.4321783862130280  0.4074324993584020
 -1.0483616829328535 -0.5274097285349821  0.4071521864862465
 -0.5500810420076967 -0.0245622111129107  0.4010317020419539
 -0.9793629836351214 -0.6216580194978562  0.4012047525909244
 -0.4790236397083130 -0.1205240966281842  0.3966585159695709
 -0.9087806581218011 -0.7111031094603764  0.4028620615197024
 -0.4092940411733825 -0.2115661209608873  0.3965917228882994
 -0.6745747548596804 -0.6876576633947655  0.3980051614454587
 -0.1777154601607144 -0.1873580120786582  0.4021480203684984
 -0.6066329444051413 -0.7837245761430509  0.3948241060994488
 -0.1073439165823536 -0.2814546057711736  0.4061691207039254
 -1.0367617182284836 -0.3766444230595879  0.4106765711275838
 -0.5378561593701358 -0.8742348666451246  0.3961530803010584
 -0.9664398384459083 -0.4684807174902388  0.4088824656014727
 -0.4690812819888504 -0.9685348979883234  0.3999438200938437
 -0.8968485037101662 -0.5645055611154808  0.4052779615351725
 -0.3973210172851759 -0.0613277600476569  0.4001372287186390
 -0.8254365868044583 -0.6560450653809087  0.4014208016360538
 -0.3283398837934925 -0.1524756265070110  0.3970850078121651
 -0.5951970465117071 -0.6297734991191865  0.3988060797794546
 -0.0953528483250595 -0.1304504420523152  0.4034017279831885
 -1.0268895245329148 -0.2240641455177068  0.4065532013383592
 -0.5248557775382706 -0.7222659196985100  0.3980602037137451
 -0.9566628533323391 -0.3178120837215980  0.4105457894313398
 -0.4562917117685708 -0.8164469394957672  0.4037718310906948
 -0.8846352365257291 -0.4118903561171232  0.4029995038095747
 -0.3878463357193540 -0.9121439802446984  0.4045179054407677
 -0.8163291369888456 -0.5070877300323671  0.4048352798358487
 -0.3154901227586915 -0.0043182817936832  0.4003420240547433
 -0.7435529141859631 -0.5968992770472231  0.4013445344549987
 -0.2479492669632229 -0.0939879143308028  0.4024451245651472
 -1.0151416661537513 -0.0753445882246252  0.4027640509748256
 -0.5128019080553267 -0.5711824191836076  0.3975998050867047
 -0.9448545878462900 -0.1686181340768161  0.4086449668947845
 -0.4416857000633458 -0.6677411234578224  0.3989690200877257
 -0.8761169874753265 -0.2603824740316356  0.4055106075652359
 -0.3734781791265190 -0.7576929045462382  0.4001407177774807
 -0.8025986332062969 -0.3532611762843013  0.4025347603192646
 -0.3039088800704621 -0.8536702318736156  0.4014590853438514
 -0.7346433886149712 -0.4430599774859101  0.4021902554473414
 -0.2335986393782781 -0.9409131384888741  0.4027086528326874
 -0.6633413587055927 -0.5351199356898005  0.3975075296670609
 -0.1662381014327389 -0.0391336966634576  0.4057722540794937
 -0.9832284803015451 -0.0042406928429669  0.4023661533427810
 -0.4804304487034341 -0.5024607858483118  0.3975188383475342
 -0.9138417545457644 -0.0969659982796790  0.4066877667514430
 -0.4107395673354561 -0.5949256807656600  0.3956583446621785
 -0.8458237217437865 -0.1872093847070877  0.4075538909123037
 -0.3412635170457180 -0.6910708735972519  0.3984277480450535
 -0.7742477351818178 -0.2794177123752331  0.4007221822264463
 -0.2741974487005825 -0.7808583950719148  0.4018259677687799
 -0.9003310394790875 -0.9422850517461765  0.4030547514410913
 -0.3995346914350316 -0.4460176504898065  0.3980166252138613
 -0.8320359728028519 -0.0373382412581418  0.3991337175438789
 -0.3282416792815739 -0.5394949284038868  0.3969180712174558
 -0.7633410232407100 -0.1301261483908923  0.4007241421828232
 -0.2597128768231378 -0.6310261111689131  0.4055170644710640
 -0.6922242075684626 -0.2194297660458686  0.3949601775976984
 -0.1936333390160158 -0.7258999231286226  0.4059797773422878
 -0.6229510352194472 -0.3192236996284834  0.4003540085189784
 -0.1209176371012912 -0.8174734576784494  0.4054498372786736
 -1.0529316644601672 -0.9115131119804878  0.4002773493693310
 -0.5517043445247370 -0.4104547063387953  0.4005355225778662
 -0.8893092503102114 -0.7927937134764942  0.3978125833014757
 -0.3897901568683859 -0.2950830307970931  0.3959387086608951
 -0.8196731673489178 -0.8854961085689835  0.4031706370934189
 -0.3186765205344992 -0.3877621490147716  0.3964767408877325
 -0.7512179197892386  0.0207876840822430  0.3974524835405471
 -0.2493029721128220 -0.4812041716873405  0.3983656203855195
 -0.6825354484914586 -0.0725387409025648  0.3969693992026563
 -0.1775600358472279 -0.5709709652506334  0.4068384637068306
 -0.6122536588740239 -0.1648004833736399  0.3970737712215272
 -0.1124907547021599 -0.6653392222257551  0.4042513346010192
 -1.0417096649570554 -0.7600780707963408  0.4010393825174226
 -0.5414903706070956 -0.2561330804501056  0.3993534839363741
 -0.9702933253217049 -0.8547831356305513  0.4022579157728691
 -0.4713854915155531 -0.3501524887001695  0.3975989816195039
 -0.8085790372270434 -0.7358110877029236  0.4022443348489257
 -0.3072760343752163 -0.2350592184339174  0.3967800186057656
 -0.7381474192861452 -0.8288376869245817  0.4001039982984127
 -0.2369941972598912 -0.3265277981441753  0.3994317664746282
 -0.6704825750347566 -0.9194809457538528  0.3979030583674390
 -0.1697595115046862 -0.4198253761143811  0.4047179495898314
 -0.6007529894538536 -0.0150160979700292  0.3990793657871215
 -0.0974426282863657 -0.5139392673073516  0.4082414059389259
 -1.0298231936404545 -0.6117901544961352  0.4041859142971916
 -0.5298202155717990 -0.1060032383450493  0.3984067903481568
 -0.9601014699787015 -0.7033814926192842  0.4026854338396655
 -0.4599585387775526 -0.2043064508151533  0.3962086250318549
 -0.7243885853582401 -0.6752483590453028  0.4031361975874234
 -0.2270349069677389 -0.1746710059056702  0.4003553359968270
 -0.6553432515158233 -0.7702563299323620  0.3943118143141746
 -0.1569527509357966 -0.2676459189757776  0.4064220477591757
 -0.5868885178140800 -0.8630974740550211  0.3965781567036752
 -0.0862593610334258 -0.3655914007064018  0.4100178027338282
 -1.0166952606426145 -0.4609094574655671  0.4103063625405977
 -0.5188119004566821 -0.9567251599110529  0.3996691516727632
 -0.9477948895382694 -0.5521933096554634  0.4053450678289153
 -0.4479394266615511 -0.0501118245345755  0.3971108336582201
 -0.8764316606656459 -0.6442552863121456  0.4049474816122461
 -0.3784647757899223 -0.1433498596277788  0.3961989111876198
 -0.6442066700786524 -0.6164537053533490  0.3952161968430005
 -0.1470901570845904 -0.1183468602365344  0.4014047616890187
 -1.0756998685649057 -0.2093643193850466  0.4040716926819823
 -0.5768741921224593 -0.7132697695790530  0.4009158533514477
 -1.0060505930364589 -0.3052877585575093  0.4102105561139126
 -0.5057886470746608 -0.8046681855837621  0.3996235014332540
 -0.9350766923539495 -0.3994501608029470  0.4048798977106011
 -0.4384935460443726 -0.8980869595146893  0.4015996556570340
 -0.8658400657890590 -0.4934014672665398  0.4032051023028960
 -0.3667925318895950  0.0081259519840041  0.4023924141289628
 -0.7945248772418623 -0.5838547091986543  0.4030963082185679
 -0.2974793398950530 -0.0840939834881110  0.3996902804780572
 -1.0635673065284386 -0.0613376743672494  0.4014195433575525
 -0.5633113458279275 -0.5594352037464151  0.4021679651435779
 -0.9956983450288762 -0.1563596807829677  0.4064191942757183
 -0.4937501484824667 -0.6520869029172675  0.3963541741952020
 -0.9266689593619845 -0.2523759307741165  0.4075474254237534
 -0.4232591570000243 -0.7474054357386964  0.4015068395601565
 -0.8544725215667950 -0.3404075185577206  0.4014719242266830
 -0.3546318556092882 -0.8410445693173122  0.4017411562490681
 -0.7842238962952597 -0.4326495770934651  0.4025081501660384
 -0.2848333499532232 -0.9345932258666753  0.4010357420226899
 -0.7128092030040740 -0.5240941954851392  0.4011899144900382
 -0.2163145206611019 -0.0250014157396972  0.4047042936002904
 -0.7035220190745867 -0.3731128905694940  0.3947669585896469
 -0.2026509039419740 -0.8751710536936455  0.4077821329741205
 -0.6327069856133136 -0.4667349309405373  0.3994868693747951
 -0.1354804540078286 -0.9679603038924535  0.4041320133834770
  0.6588149150074077  0.7538968661831155  0.1893155706517752
  1.1553125473150518  1.2622176822169668  0.1945508177326211
  0.5099175629833980  1.0459446384777578  0.1940341247894947
  1.0113110815535684  0.5495233554480119  0.1983532958164011
  0.4400756686097606  0.6878597927091838  0.1927342639836508
  0.9413855852697677  1.1915647668031397  0.1952752849685289
  0.7991436758429545  0.4809650406298970  0.1971612532533789
  1.2933664415945716  0.9739911928836863  0.1930822217736199
  0.7267331479356092  1.1248201440240595  0.1960097544630690
  1.2264037811410700  0.6139841502557293  0.1969684686615376
  0.5849986925445730  0.4065305014394172  0.1884584420148897
  1.0813911361248312  0.9058981813701158  0.1980636589706568
  0.3677081754691071  1.3360959457651911  0.1927987872420459
  0.8719196152015716  0.8383605387670889  0.1974162825928613
  0.3701298867113872  1.3365661822131578  0.2660726419468724
  0.8680323305220053  0.8386833041791804  0.2692064317067779
  0.6506009231480284  0.7545761700019424  0.2639162165818547
  1.1586491985353251  1.2551474865802319  0.2720386955098815
  0.5123230081055065  1.0478846263526107  0.2680848914027745
  1.0143301437202934  0.5471376242843154  0.2726557476302221
  0.4403894892043064  0.6916814669896086  0.2690487438541410
  0.9432636821582416  1.1927663104746644  0.2711688693724639
  0.7967276379609447  0.4821261332575611  0.2707246264766697
  1.2980146220433106  0.9754440364017031  0.2683997120683376
  0.7263268177372179  1.1256553335844981  0.2701383135842453
  1.2270282182301187  0.6241162255123541  0.2709535873762069
  0.5855905881066804  0.4037543986988802  0.2608153833084186
  1.0851772715268937  0.9045441832690924  0.2714157179843381
  0.6373472966182671  0.6342647602552629  0.1705902261122305
  1.1357264962340055  1.1515731432728786  0.1682174184255818
  0.4931167891096038  0.9246670213864225  0.1734678253378853
  0.9978867336137832  0.4282631704161017  0.1786326273010255
  0.8546194800065376  0.7157847102791429  0.1789130678379544
  1.3533547124699277  1.2205660698306637  0.1700245673550484
  0.4208050951803705  0.5758421828593674  0.1704567967203022
  0.9204350707488579  1.0778501427156599  0.1792349109904406
  0.7793258471822612  0.3645915801771808  0.1754507250837623
  1.2776748281265489  0.8648813509900137  0.1698834247567038
  0.7101516024441427  1.0073893204518809  0.1755548876983186
  1.2034528336843737  0.5015006307814105  0.1731880383467067
  0.5663341674415616  1.2854789628643595  0.1730534317161408
  1.0641362853057712  0.7892743273688041  0.1806598765707666
  0.6100464562631476  0.8380085839908786  0.1662462368617282
  1.1091296664137102  0.3520256148847298  0.1802123293715449
  0.4586820706236130  1.1283152259520970  0.1749823324065528
  0.9574402142706595  0.6342852138105940  0.1814311200628408
  0.3949078277863146  0.7757879307636149  0.1689606237833357
  0.8968725972688547  1.2849152873595040  0.1766436581972251
  0.7498750682071923  0.5639961988647354  0.1714266339278663
  1.2485440387233411  1.0643765195009918  0.1711044813241026
  0.8212295498537557  0.9253476506790934  0.1755369531761674
  1.3210500848713886  0.4260974118675048  0.1746488773363060
  0.6789787418315387  1.2062130059059102  0.1703029786480267
  1.1763383682429724  0.7037227676504735  0.1820333079310145
  0.5317032200819062  0.4803595541019511  0.1640128741773915
  1.0295848024560335  0.9912578578944127  0.1808074175558113
  0.7254355728601392  0.7988934427368966  0.1668729038375676
  1.2248336233683348  1.2933973741550131  0.1732931540324678
  0.5726373791065403  1.0778626284819883  0.1679997503105540
  1.0783113162358668  0.5758460568213444  0.1749974544589303
  0.5069927341563323  0.7131097111225668  0.1747849250812293
  1.0130273285842661  1.2259275553253350  0.1768517044692166
  0.8691369935496390  0.5119724342220805  0.1826392676310293
  1.3613180257227424  1.0086512608108240  0.1721942538527813
  0.7913353182187394  1.1620591524575503  0.1754327480129061
  1.2909710121365567  0.6467033900529245  0.1722991918430171
  0.6494868277448448  0.4454350636811824  0.1679165572857911
  1.1465393718828469  0.9388282159409697  0.1729792159394005
  0.4366209969700907  0.3657864173032591  0.1724556714013922
  0.9377097750565742  0.8670044881190683  0.1750140842307785
  0.7010880679030691  0.6680802553721841  0.2832402676080599
  1.2075129411282204  1.1660340621990166  0.2855742327306764
  0.5608880321986199  0.9618380689541383  0.2816627656365243
  1.0611625073536437  0.4574324732747550  0.2875274239932444
  0.4215595713825998  1.2557414541645286  0.2848779961067765
  0.9145559819694423  0.7517864411013341  0.2890961773205624
  0.4842527145885797  0.5996668388194635  0.2868950642485584
  0.9901490526732745  1.1058664270038228  0.2893334456635251
  0.8470412715772495  0.3940580666390195  0.2873611656668717
  1.3443616037867943  0.8882176317334444  0.2863531170730296
  0.7694647551201831  1.0301510400885101  0.2888315803366374
  1.2758752729679264  0.5350060954098719  0.2867466598217630
  0.6334668297242201  1.3186243862397886  0.2809369434242206
  1.1328983175170833  0.8142398971517845  0.2899162418919375
  0.6704018378459098  0.8684890025049776  0.2806758027486217
  1.1745135590061533  0.3749788808336664  0.2839761394459006
  0.5335201285098553  1.1687276935211777  0.2872410106323214
  1.0352530253870440  0.6533317155088818  0.2965162616210664
  0.4644064425878812  0.8080885030362150  0.2896040341967404
  0.9610633649517926  1.3040587736165177  0.2904912630935910
  0.8175934799608935  0.5964450768498114  0.2927672021938702
  1.3180377845017821  1.0914940366039980  0.2846114150238258
  0.3842767558804543  0.4500548061210184  0.2845165298633573
  0.8856907763986362  0.9533446525597858  0.2887574618862491
  0.7481018475518421  1.2439446482918255  0.2847281060659169
  1.2441840660627950  0.7407166783913314  0.2840557520720573
  0.6042746281071003  0.5214693640048413  0.2819809425641847
  1.1035589305972251  1.0236219909451900  0.2900977273286774
  0.7989078476107203  0.8139489584429157  0.2881402999654425
  1.3020117858065314  1.3062839571453884  0.2841741874010119
  0.5841363335400509  0.7247680141844091  0.2831945634209949
  1.0893941111636636  1.2260488909990608  0.2880257798515882
  0.4439934079571544  1.0219031921703285  0.2893418282384302
  0.9470491030610412  0.5152766593145859  0.2933746602861003
  0.3708845984349100  0.6685572541456063  0.2882043207631596
  0.8717954724200182  1.1639970855541273  0.2833512119202201
  0.7290059479311712  0.4554373819411953  0.2887154455786100
  1.2277687953253977  0.9493457872112666  0.2865209111833790
  0.6573463627061241  1.0960395845784832  0.2897192904386783
  1.1605905987269420  0.5899230539838471  0.2907702542793416
  0.5221982495962452  0.3760668243646280  0.2829617109213491
  1.0187392217861708  0.8742621641858664  0.2899176359233394
  0.6314362254485636  0.9727502428004192  0.1803167489810382
  1.1305683688065513  0.4821116602668675  0.2008397428880991
  0.5596187038183776  0.6084605590539316  0.1804893177765978
  1.0591982704807905  1.1153305673747671  0.1908464619184406
  0.4139236428945418  0.9092926410948181  0.1920555255698276
  0.9214914991451829  0.4118755074086229  0.1976233131039866
  0.7746432734530955  0.6958443387756071  0.1794705131549759
  1.2752087842583026  1.1902090999262420  0.1866901051036553
  0.8421661347700367  1.0615527293402953  0.2005887913065976
  1.3467022280980674  0.5525989370151474  0.1908348244920434
  0.7030531911358956  1.3363189685667538  0.1879923488906095
  1.1999339950523309  0.8336432765989252  0.1896088901192820
  0.4875377021308333  1.2606422628351897  0.1843746877548808
  0.9868292064544507  0.7632916807624076  0.1894845944800535
  0.7520442553503766  0.9054393943036319  0.2366855935028664
  1.2495450203562737  0.4052263682662193  0.2406992987614708
  0.5371048185771573  0.8254521434021660  0.2316858766609642
  1.0349987397752032  1.3303447385944522  0.2419233165789740
  0.3940486158433664  1.1236143781807806  0.2391992788813159
  0.8932948830833357  0.6169144438673081  0.2475734072259912
  0.4654375411458089  0.4757165670704395  0.2357344346821377
  0.9680882807560574  0.9763355900274419  0.2460098637259771
  0.8277913256190014  1.2738155602001331  0.2400358442365998
  1.3217275459500264  0.7649785086719657  0.2318843715272017
  0.6788248871721484  0.5518043332708453  0.2312358906131418
  1.1771396730241310  1.0518581724826916  0.2356857707582501
  0.6090499516717767  1.1836783861124964  0.2363479733319410
  1.1063735404596076  0.6818456612581003  0.2426794719506022
 
 -0.40178073E-02  0.34184914E-03  0.72461826E-03
 -0.10097989E-01 -0.39407858E-02 -0.22166872E-02
 -0.51321950E-02  0.27397441E-02 -0.38958767E-02
 -0.29555742E-02 -0.24063460E-02 -0.25252951E-02
 -0.57782695E-02 -0.16452669E-02  0.45411481E-02
  0.30755370E-02  0.42175305E-02 -0.34699579E-02
  0.33917264E-02  0.13380817E-03 -0.12039626E-04
 -0.34506351E-02 -0.25861293E-02 -0.24382214E-02
 -0.25447886E-02  0.33760774E-02 -0.16241236E-02
 -0.69867050E-02 -0.93024616E-03 -0.93251122E-02
 -0.72840490E-02  0.24904023E-02 -0.46056307E-02
 -0.24167186E-02  0.75996213E-02  0.60672099E-02
  0.10425122E-02  0.10836014E-02 -0.79274357E-02
 -0.72798533E-03  0.57812028E-02  0.17247219E-02
  0.33064898E-03  0.67801511E-03 -0.23351784E-02
  0.19603136E-02 -0.79998675E-02 -0.87502524E-03
 -0.27904812E-02  0.67742928E-04  0.55617939E-02
  0.50643885E-02  0.35265190E-02  0.13528164E-02
 -0.39233780E-02 -0.31378515E-02  0.11784964E-01
 -0.41981282E-02 -0.56883145E-02  0.42420098E-02
 -0.11568074E-02  0.50026601E-02  0.21490042E-02
 -0.41434127E-03  0.72494172E-02 -0.36632667E-02
 -0.18780222E-02 -0.34502758E-02  0.16270160E-02
  0.46371703E-03  0.11297830E-02  0.27048354E-02
  0.15545971E-02  0.81473889E-02  0.11126470E-01
  0.66218185E-02  0.13465655E-02  0.11039181E-01
  0.40765919E-02  0.16352127E-02  0.97178003E-03
  0.52270570E-02 -0.10445359E-01  0.23490846E-02
  0.11925031E-01 -0.88111306E-03 -0.19612506E-03
 -0.69727607E-02  0.67124313E-02 -0.31264602E-03
 -0.21843347E-02 -0.58067371E-02 -0.30712727E-02
 -0.28080912E-02 -0.22401053E-02 -0.68238713E-02
  0.69036018E-02  0.53708663E-02 -0.47374716E-03
 -0.57617123E-02  0.28812859E-02  0.58020175E-02
  0.28663428E-02  0.45820614E-02 -0.82104369E-02
  0.50880848E-02  0.88992114E-04 -0.10604631E-02
 -0.59234339E-02  0.37245433E-02 -0.22863144E-02
 -0.43465839E-02 -0.23962934E-02 -0.21090193E-02
  0.95653602E-03 -0.10071491E-01  0.24466764E-02
 -0.51267429E-02  0.37763700E-03 -0.27119598E-02
  0.97105748E-04 -0.77868953E-02 -0.72477424E-03
 -0.55518168E-02 -0.31117352E-03 -0.40724564E-02
  0.17180396E-02 -0.24910303E-02  0.18987565E-02
  0.16716655E-02 -0.40324667E-02 -0.46271163E-02
 -0.34852359E-02  0.10823381E-02  0.27462881E-02
 -0.19703836E-02 -0.36813625E-02  0.13451845E-01
  0.13325587E-02  0.15414793E-02  0.38622180E-02
 -0.23626322E-02 -0.86366308E-02  0.99331972E-02
  0.94377682E-03 -0.39338007E-02 -0.38587223E-02
 -0.61076134E-04  0.69791114E-02  0.17769629E-03
  0.53149272E-02  0.41388172E-02 -0.56673206E-02
  0.19833847E-02  0.99995447E-02 -0.45020279E-02
  0.11933018E-01 -0.90221553E-02 -0.24317537E-02
 -0.92664226E-03 -0.30246726E-02  0.30763705E-02
  0.66643609E-02 -0.38600247E-02 -0.40371817E-03
  0.45375289E-03 -0.93949073E-02 -0.15600033E-02
 -0.18883917E-02 -0.13556112E-01  0.21283829E-02
 -0.78051972E-02 -0.95863017E-02 -0.36919969E-02
 -0.67980573E-03  0.97791410E-04  0.21098933E-02
 -0.11457739E-02 -0.11330580E-02  0.10115226E-03
 -0.73513637E-02  0.23094376E-03  0.11019266E-02
  0.41899075E-03  0.49393112E-02  0.28756482E-02
  0.18701710E-02 -0.66539470E-03  0.33280554E-02
 -0.47003532E-02  0.62681155E-02 -0.24770275E-02
 -0.17259669E-02 -0.45200482E-02 -0.25551324E-02
  0.41251988E-02 -0.17855708E-02  0.67954351E-02
  0.13038120E-03  0.24573424E-02  0.47794393E-02
  0.19507259E-02  0.81944743E-02  0.76884193E-02
 -0.12787561E-02 -0.12814548E-01  0.66910327E-02
 -0.32316316E-02 -0.40725437E-02 -0.25792770E-02
 -0.32713081E-02  0.41629746E-02  0.21404217E-04
  0.19586205E-02 -0.18159934E-02 -0.75222702E-02
 -0.52334423E-02 -0.88003274E-05  0.10615525E-01
 -0.24016414E-03 -0.12788600E-02 -0.29164796E-02
  0.59102469E-02 -0.26977513E-02 -0.55320699E-02
 -0.11401506E-01  0.53182375E-02 -0.72293778E-02
 -0.42443675E-02  0.45468751E-02 -0.46090645E-02
 -0.61362782E-02 -0.67300468E-02  0.89280735E-03
 -0.20937007E-02 -0.62712400E-03 -0.18177330E-02
 -0.31326924E-03  0.86544586E-03  0.68517313E-02
  0.79427621E-04 -0.73608605E-04 -0.35827525E-02
 -0.20162361E-02 -0.12628490E-02  0.27883512E-02
  0.32474201E-02  0.20620710E-02 -0.52432373E-02
 -0.36070598E-02 -0.57446962E-02  0.43443190E-02
  0.35926153E-02 -0.57628396E-03 -0.17432545E-02
  0.16745394E-02  0.83734321E-02  0.22294526E-02
  0.90658095E-02 -0.42217942E-02 -0.18472734E-02
  0.19006877E-02  0.33636788E-02  0.87478016E-03
 -0.86923472E-02  0.82070551E-02 -0.66933628E-03
 -0.31751329E-02  0.49008203E-02 -0.19504110E-02
 -0.34682742E-02 -0.22067860E-02 -0.43079872E-02
  0.33576958E-02 -0.61116755E-02 -0.95875510E-03
  0.15151612E-03 -0.71310573E-03 -0.29511188E-02
 -0.40522881E-03  0.16449143E-02  0.42208103E-02
 -0.54077470E-02 -0.21203037E-02 -0.95764994E-03
  0.22598528E-03 -0.52924227E-02  0.33581863E-02
  0.11857717E-01 -0.33633837E-02  0.58411365E-02
  0.74656678E-02 -0.26773524E-02  0.46486768E-02
  0.94517850E-02 -0.68893094E-02 -0.75376491E-02
  0.47137775E-02  0.53783677E-03  0.82834471E-03
  0.61035388E-03 -0.79749132E-03  0.59973495E-02
  0.13700173E-02 -0.44770166E-02 -0.27568698E-02
 -0.82391722E-02 -0.44558022E-02 -0.52174029E-04
 -0.65305943E-02 -0.43662344E-02 -0.31046497E-02
  0.49619635E-02  0.18699287E-02  0.41391828E-02
  0.46951229E-02  0.67454365E-02 -0.10132244E-01
  0.19992636E-02  0.82070080E-02  0.14793857E-02
  0.46553227E-02 -0.12341240E-02 -0.32511949E-02
 -0.14762131E-02 -0.53495651E-02 -0.11521428E-01
 -0.54482986E-02  0.38135443E-02 -0.36689801E-02
  0.46348174E-02  0.10617749E-01 -0.20182337E-02
 -0.30934656E-02  0.28694325E-02  0.43431064E-02
 -0.41309268E-02 -0.45725064E-02 -0.10694185E-01
  0.36743990E-02 -0.68325115E-02 -0.43473119E-02
  0.27939802E-02  0.45656841E-03 -0.51854896E-02
  0.38642309E-02 -0.72625284E-03 -0.15958339E-02
  0.48812909E-02 -0.55325630E-02  0.30530669E-02
  0.34497934E-02 -0.77301046E-02  0.57257808E-02
 -0.57879500E-02  0.61371906E-02  0.92980595E-03
  0.27411767E-02 -0.92940938E-03  0.92565702E-03
  0.62192023E-02  0.43702220E-02  0.90552887E-03
 -0.20831505E-02  0.20379212E-02  0.11131715E-01
 -0.51990032E-02  0.47501791E-02  0.58428841E-02
 -0.60290780E-02  0.43110754E-02 -0.13434417E-02
  0.13361949E-02  0.35315741E-02  0.38881025E-02
  0.35757539E-02  0.13143604E-02 -0.91718867E-04
 -0.45920320E-02 -0.47459424E-02 -0.69327693E-02
 -0.70441057E-02  0.36083357E-02  0.31011106E-02
 -0.35121084E-02  0.33453498E-02  0.58611214E-03
  0.54881785E-02  0.53297220E-03  0.76114632E-02
 -0.32784367E-02 -0.49056251E-02  0.69319011E-02
 -0.51123666E-02 -0.76028238E-03 -0.34826132E-02
 -0.33320095E-02  0.61890240E-03 -0.14188215E-02
 -0.29453962E-02  0.21688040E-02  0.25195244E-02
  0.22460837E-02  0.40092497E-02  0.33014336E-03
  0.30922934E-02 -0.25209011E-02  0.11189955E-02
 -0.28354481E-02 -0.11164566E-01 -0.60341430E-02
 -0.33530462E-02  0.94692155E-02 -0.42225991E-02
 -0.94937272E-03  0.44374750E-02  0.29294597E-02
  0.59385265E-02  0.22898485E-02  0.60775985E-03
  0.15418405E-02 -0.29683996E-02 -0.36327831E-02
 -0.36971566E-02  0.14248667E-02 -0.12246223E-02
  0.64564747E-02 -0.65408079E-02  0.11180578E-02
  0.13578020E-02  0.34070614E-02  0.10470158E-01
  0.87764982E-02  0.32773787E-02  0.28511679E-02
 -0.51830857E-02 -0.18006672E-02  0.40258779E-02
 -0.79027537E-03 -0.44329707E-03  0.24333325E-02
  0.34093353E-02  0.18060423E-02 -0.33277130E-02
  0.32326069E-02  0.29608234E-02  0.41584335E-03
 -0.27437028E-02 -0.44634533E-02 -0.13881445E-02
 -0.77462944E-02  0.55143718E-02 -0.85997185E-02
  0.76688379E-02 -0.22858311E-02 -0.87842287E-02
  0.38117741E-02 -0.43704568E-03 -0.29414649E-02
  0.28928314E-02  0.49937314E-02  0.63182879E-02
  0.26852430E-02 -0.99090390E-02 -0.30035353E-02
 -0.52844669E-03 -0.19431986E-02 -0.32161462E-02
 -0.87758727E-03 -0.19332588E-02  0.10546517E-02
 -0.56087499E-02 -0.28043154E-02  0.80627863E-02
 -0.44849635E-02  0.37202744E-03  0.86127835E-02
  0.30847653E-03  0.52799095E-02 -0.30954640E-04
 -0.73625444E-02 -0.99740506E-02  0.77777105E-02
 -0.46193133E-03  0.25208133E-02  0.29043425E-02
 -0.47436688E-02 -0.29793546E-03  0.73010905E-02
  0.27654013E-02  0.42346517E-03  0.25687367E-02
  0.28668954E-02  0.11005195E-01  0.24605497E-02
  0.87554290E-03 -0.33462383E-02 -0.16004571E-02
  0.10629833E-02 -0.62064847E-03 -0.41145157E-02
  0.56632887E-02  0.21144788E-02 -0.17621112E-02
  0.20313639E-02  0.10877599E-02  0.51779463E-02
 -0.18071244E-02  0.16538704E-02 -0.13828312E-02
  0.40760769E-02  0.49427559E-02 -0.11291782E-02
 -0.47475982E-02 -0.18178515E-02 -0.98143722E-03
  0.88359252E-03  0.32498462E-02  0.22785694E-02
 -0.27730730E-02 -0.47232033E-02  0.29097195E-02
 -0.39845929E-02 -0.30912345E-02  0.18199345E-02
  0.31081376E-02  0.27135543E-02 -0.20003039E-02
  0.18298018E-02  0.48087929E-02 -0.25913818E-02
  0.85067798E-04 -0.31220674E-02 -0.62201568E-03
  0.31531365E-02  0.18654164E-02 -0.34381485E-02
 -0.33165283E-02 -0.12077480E-03 -0.30640350E-02
 -0.37620906E-03  0.13089700E-02  0.14266698E-02
  0.43292824E-02 -0.15040363E-02 -0.21259380E-02
  0.10954929E-03  0.55607488E-02  0.26629590E-02
  0.26933782E-02  0.32665526E-02 -0.48980144E-02
 -0.18259933E-02  0.18782927E-02 -0.41983380E-03
 -0.22555528E-02 -0.19048258E-02 -0.19158851E-02
  0.27774126E-02 -0.24109692E-02  0.84058582E-03
  0.61576890E-03 -0.71584934E-04 -0.42916267E-03
 -0.91158816E-05  0.22778276E-02 -0.10561392E-02
  0.15456435E-03 -0.19411974E-02 -0.90129213E-03
 -0.34174592E-02  0.20716756E-02  0.22008340E-02
 -0.17471435E-02  0.12883219E-02  0.35916819E-02
  0.13657372E-03  0.49505004E-02 -0.44394576E-02
 -0.22669521E-02  0.19346043E-02  0.11453242E-02
 -0.10236825E-02 -0.64102979E-03 -0.76605318E-03
  0.25613361E-02 -0.12726616E-02 -0.21733412E-03
  0.47700234E-02  0.16582506E-02 -0.57336097E-03
  0.48691975E-02  0.51225702E-02  0.79819168E-03
  0.26009027E-02 -0.23804930E-02  0.16164269E-02
 -0.18295167E-02  0.15826905E-02  0.16801205E-02
 -0.33254280E-02  0.11539896E-03 -0.71779443E-03
  0.25209057E-02 -0.28126825E-02 -0.22851743E-03
 -0.11214075E-02 -0.24861306E-02  0.63334112E-03
 -0.24513890E-02 -0.61113806E-02 -0.25882536E-02
 -0.15666517E-02  0.26150865E-02  0.86288939E-03
 -0.22388193E-02 -0.34634756E-02  0.41207126E-02
 -0.52770318E-03  0.94311033E-03  0.78420346E-03
  0.13112611E-02 -0.37692296E-02  0.14381644E-02
  0.37809592E-02 -0.16728847E-02  0.64514700E-03
  0.24086591E-02  0.13669725E-02 -0.48736082E-02
 -0.22487666E-02 -0.46160494E-02  0.14449672E-02
  0.37711330E-03  0.38307654E-02  0.42579361E-02
 -0.12618319E-02 -0.36018765E-02 -0.14557875E-02
 -0.39241830E-03  0.27835375E-02  0.18280745E-02
 -0.99300791E-03  0.23745875E-02  0.29685417E-02
  0.57431537E-02  0.14589342E-02 -0.13179234E-02